0 1
0 101
0 103
0 120
0 146
0 148
0 166
0 17
0 177
0 178
0 18
0 215
0 218
0 221
0 222
0 223
0 226
0 238
0 248
0 250
0 266
0 268
0 283
0 297
0 309
0 313
0 316
0 368
0 377
0 380
0 459
0 498
0 5
0 560
0 581
0 6
0 64
0 65
0 73
0 734
0 74
0 88
1 106
1 121
1 127
1 128
1 142
1 146
1 147
1 155
1 17
1 187
1 189
1 199
1 21
1 215
1 218
1 221
1 222
1 224
1 225
1 232
1 250
1 254
1 255
1 268
1 280
1 284
1 310
1 316
1 317
1 351
1 368
1 377
1 450
1 459
1 495
1 52
1 537
1 548
1 549
1 560
1 568
1 616
1 641
1 726
1 74
1 82
1 84
1 85
1 979
10 105
10 11
10 121
10 13
10 133
10 134
10 142
10 143
10 160
10 173
10 20
10 21
10 25
10 256
10 260
10 271
10 282
10 300
10 306
10 324
10 325
10 326
10 327
10 329
10 339
10 340
10 36
10 366
10 400
10 405
10 409
10 434
10 44
10 508
10 509
10 535
10 564
10 638
10 64
10 69
10 728
10 777
10 82
10 86
10 89
10 96
10 971
100 101
100 102
100 107
100 117
100 124
100 125
100 142
100 185
100 262
100 300
100 301
100 323
100 353
100 354
100 371
100 404
100 424
100 429
100 434
100 494
100 5
100 51
100 592
100 618
100 62
100 640
100 662
100 687
100 708
100 768
100 820
100 86
100 92
100 935
100 937
100 96
100 97
100 98
100 99
1000 14
1000 166
1000 206
1000 232
1000 292
1000 918
1001 193
1001 194
1001 2
1001 3
1001 4
1001 6
1001 803
1001 826
1001 832
1001 990
1002 560
1003 258
1004 55
101 102
101 120
101 124
101 125
101 131
101 155
101 185
101 211
101 233
101 300
101 323
101 353
101 354
101 371
101 380
101 404
101 419
101 581
101 65
101 768
101 83
101 96
101 97
101 98
101 99
102 192
102 2
102 3
102 300
102 323
102 4
102 405
102 411
102 412
102 5
102 516
102 517
102 6
102 64
102 743
102 812
102 832
102 97
102 98
103 104
103 122
103 123
103 14
103 150
103 157
103 160
103 162
103 179
103 18
103 181
103 182
103 201
103 211
103 215
103 232
103 250
103 283
103 295
103 296
103 320
103 321
103 342
103 352
103 368
103 376
103 377
103 378
103 379
103 380
103 385
103 389
103 390
103 392
103 393
103 394
103 395
103 397
103 52
103 526
103 53
103 537
103 546
103 582
103 60
103 61
103 64
103 741
103 86
104 150
104 155
104 157
104 160
104 179
104 18
104 181
104 182
104 250
104 283
104 288
104 295
104 320
104 321
104 368
104 376
104 377
104 379
104 387
104 388
104 389
104 390
104 392
104 393
104 394
104 395
104 549
104 60
104 61
104 82
105 106
105 114
105 115
105 121
105 127
105 128
105 129
105 142
105 145
105 147
105 152
105 153
105 154
105 155
105 158
105 159
105 16
105 160
105 161
105 163
105 165
105 166
105 169
105 17
105 170
105 173
105 180
105 183
105 184
105 187
105 190
105 199
105 203
105 21
105 210
105 212
105 215
105 223
105 226
105 233
105 236
105 242
105 243
105 249
105 252
105 255
105 256
105 258
105 269
105 28
105 280
105 281
105 282
105 283
105 285
105 288
105 296
105 303
105 310
105 314
105 326
105 327
105 329
105 333
105 340
105 346
105 347
105 351
105 355
105 357
105 358
105 360
105 362
105 363
105 366
105 367
105 371
105 375
105 384
105 393
105 400
105 404
105 405
105 41
105 412
105 419
105 42
105 420
105 422
105 424
105 427
105 431
105 434
105 44
105 441
105 450
105 453
105 473
105 474
105 478
105 48
105 489
105 492
105 493
105 495
105 5
105 506
105 508
105 509
105 518
105 533
105 543
105 544
105 546
105 550
105 569
105 58
105 589
105 60
105 601
105 607
105 612
105 64
105 654
105 667
105 69
105 74
105 747
105 748
105 77
105 771
105 80
105 81
105 82
105 820
105 83
105 84
105 856
105 859
105 86
105 87
105 914
105 92
106 107
106 11
106 113
106 114
106 117
106 128
106 129
106 132
106 133
106 142
106 145
106 147
106 154
106 155
106 16
106 160
106 163
106 169
106 17
106 183
106 184
106 187
106 188
106 189
106 190
106 20
106 21
106 210
106 211
106 212
106 221
106 222
106 223
106 226
106 230
106 242
106 249
106 253
106 254
106 255
106 256
106 259
106 268
106 278
106 279
106 28
106 280
106 282
106 283
106 287
106 290
106 295
106 298
106 300
106 303
106 311
106 314
106 329
106 340
106 351
106 353
106 355
106 356
106 357
106 358
106 363
106 365
106 367
106 371
106 372
106 373
106 377
106 400
106 405
106 419
106 42
106 420
106 424
106 434
106 44
106 454
106 459
106 46
106 462
106 467
106 473
106 480
106 486
106 489
106 490
106 494
106 495
106 5
106 518
106 519
106 531
106 533
106 537
106 546
106 548
106 549
106 550
106 551
106 560
106 582
106 589
106 607
106 614
106 615
106 62
106 64
106 641
106 642
106 671
106 68
106 690
106 695
106 717
106 72
106 726
106 73
106 74
106 747
106 748
106 756
106 771
106 80
106 81
106 82
106 820
106 828
106 83
106 86
106 87
106 885
106 90
106 932
106 979
107 113
107 114
107 115
107 121
107 124
107 127
107 128
107 129
107 131
107 132
107 133
107 137
107 139
107 141
107 142
107 147
107 152
107 153
107 154
107 158
107 16
107 160
107 161
107 162
107 163
107 164
107 165
107 166
107 169
107 17
107 170
107 172
107 173
107 174
107 179
107 18
107 180
107 183
107 184
107 187
107 19
107 2
107 201
107 206
107 207
107 209
107 21
107 210
107 211
107 212
107 214
107 216
107 221
107 222
107 226
107 23
107 230
107 233
107 236
107 237
107 249
107 252
107 253
107 254
107 255
107 256
107 258
107 269
107 279
107 28
107 280
107 281
107 282
107 283
107 284
107 285
107 290
107 295
107 296
107 3
107 300
107 303
107 306
107 31
107 310
107 314
107 318
107 319
107 326
107 327
107 329
107 333
107 338
107 340
107 342
107 343
107 35
107 355
107 356
107 357
107 36
107 361
107 362
107 366
107 367
107 371
107 372
107 375
107 393
107 395
107 4
107 400
107 401
107 404
107 405
107 41
107 410
107 417
107 418
107 420
107 427
107 428
107 429
107 430
107 434
107 438
107 44
107 441
107 448
107 45
107 450
107 453
107 454
107 459
107 46
107 467
107 468
107 47
107 474
107 478
107 480
107 481
107 489
107 490
107 492
107 493
107 494
107 495
107 506
107 509
107 518
107 531
107 532
107 54
107 541
107 544
107 55
107 550
107 568
107 57
107 58
107 589
107 591
107 597
107 601
107 62
107 63
107 64
107 642
107 65
107 662
107 665
107 671
107 68
107 687
107 69
107 690
107 70
107 702
107 704
107 708
107 726
107 730
107 736
107 74
107 747
107 748
107 769
107 77
107 78
107 79
107 8
107 80
107 809
107 81
107 812
107 82
107 820
107 828
107 83
107 834
107 837
107 84
107 856
107 859
107 86
107 87
107 89
107 896
107 90
107 91
107 932
107 954
107 96
107 963
107 98
107 99
108 109
108 110
108 111
108 112
108 13
108 143
108 155
108 160
108 183
108 190
108 258
108 290
108 300
108 301
108 328
108 329
108 356
108 357
108 375
108 405
108 409
108 420
108 469
108 473
108 474
108 476
108 477
108 478
108 494
108 509
108 514
108 64
108 652
108 66
108 67
108 69
108 81
108 90
108 91
108 93
108 971
109 366
109 424
109 51
109 62
11 12
11 128
11 129
11 133
11 141
11 159
11 161
11 183
11 19
11 20
11 209
11 21
11 211
11 213
11 22
11 233
11 240
11 247
11 265
11 266
11 270
11 293
11 300
11 324
11 327
11 358
11 359
11 360
11 362
11 365
11 400
11 406
11 420
11 421
11 430
11 434
11 44
11 441
11 452
11 466
11 496
11 498
11 5
11 502
11 504
11 506
11 518
11 525
11 529
11 530
11 555
11 566
11 569
11 573
11 602
11 608
11 611
11 621
11 64
11 661
11 666
11 699
11 7
11 700
11 720
11 754
11 8
11 804
11 90
11 91
11 92
11 956
110 111
110 121
110 258
110 375
110 474
110 478
110 84
110 91
111 258
111 375
111 474
111 478
111 66
111 84
112 258
112 356
112 357
112 368
112 37
112 373
112 375
112 469
112 474
112 476
112 478
112 51
112 66
112 7
112 80
112 84
112 896
112 91
113 114
113 115
113 116
113 129
113 13
113 133
113 151
113 160
113 165
113 168
113 169
113 171
113 176
113 177
113 183
113 220
113 23
113 232
113 245
113 250
113 26
113 263
113 28
113 280
113 29
113 301
113 306
113 318
113 32
113 329
113 33
113 333
113 338
113 339
113 36
113 361
113 367
113 370
113 38
113 40
113 41
113 417
113 419
113 423
113 424
113 426
113 434
113 438
113 442
113 443
113 444
113 455
113 47
113 473
113 478
113 48
113 483
113 485
113 486
113 494
113 51
113 527
113 543
113 547
113 556
113 62
113 64
113 725
113 76
113 83
113 84
113 847
113 86
113 914
113 919
113 925
113 932
113 950
113 96
113 971
113 976
113 981
113 983
114 115
114 116
114 121
114 128
114 129
114 13
114 133
114 137
114 145
114 152
114 154
114 155
114 158
114 160
114 165
114 166
114 168
114 169
114 170
114 171
114 172
114 173
114 183
114 184
114 2
114 208
114 21
114 210
114 211
114 212
114 215
114 220
114 226
114 229
114 234
114 24
114 245
114 249
114 252
114 254
114 255
114 256
114 261
114 263
114 278
114 28
114 280
114 283
114 290
114 3
114 30
114 300
114 303
114 307
114 318
114 326
114 329
114 333
114 338
114 339
114 340
114 35
114 355
114 356
114 36
114 361
114 362
114 363
114 365
114 366
114 367
114 371
114 375
114 39
114 4
114 405
114 41
114 411
114 417
114 419
114 420
114 423
114 424
114 426
114 434
114 438
114 44
114 442
114 443
114 444
114 455
114 46
114 464
114 47
114 473
114 48
114 485
114 486
114 495
114 51
114 527
114 531
114 533
114 547
114 564
114 609
114 62
114 63
114 640
114 655
114 686
114 725
114 76
114 767
114 78
114 80
114 81
114 82
114 820
114 83
114 847
114 86
114 87
114 89
114 892
114 895
114 896
114 919
114 925
114 93
114 932
114 96
114 971
114 976
114 981
114 983
115 116
115 121
115 123
115 128
115 129
115 135
115 136
115 142
115 145
115 147
115 152
115 153
115 155
115 16
115 160
115 163
115 165
115 166
115 169
115 17
115 170
115 171
115 172
115 173
115 18
115 184
115 208
115 21
115 212
115 229
115 23
115 232
115 233
115 245
115 249
115 251
115 252
115 254
115 256
115 261
115 263
115 28
115 280
115 282
115 283
115 30
115 301
115 302
115 31
115 318
115 333
115 336
115 337
115 338
115 339
115 340
115 355
115 361
115 363
115 366
115 367
115 370
115 372
115 373
115 38
115 387
115 404
115 405
115 41
115 411
115 417
115 42
115 420
115 421
115 422
115 424
115 427
115 434
115 436
115 437
115 438
115 439
115 442
115 443
115 453
115 455
115 460
115 473
115 474
115 48
115 486
115 492
115 493
115 494
115 5
115 513
115 531
115 533
115 546
115 548
115 58
115 612
115 615
115 62
115 63
115 64
115 644
115 753
115 79
115 812
115 816
115 82
115 820
115 83
115 84
115 86
115 860
115 87
115 883
115 900
115 914
115 932
115 96
115 978
115 987
116 118
116 121
116 123
116 128
116 129
116 133
116 135
116 136
116 151
116 152
116 160
116 165
116 169
116 170
116 171
116 183
116 207
116 221
116 23
116 245
116 251
116 261
116 263
116 27
116 28
116 280
116 29
116 30
116 317
116 32
116 329
116 336
116 337
116 338
116 339
116 34
116 340
116 35
116 361
116 367
116 370
116 38
116 39
116 40
116 405
116 411
116 417
116 420
116 434
116 437
116 438
116 443
116 455
116 460
116 464
116 47
116 470
116 473
116 513
116 531
116 533
116 548
116 64
116 655
116 725
116 73
116 74
116 753
116 79
116 816
116 82
116 860
116 883
116 896
116 914
116 93
116 96
116 987
117 118
117 121
117 160
117 170
117 189
117 211
117 223
117 252
117 409
117 460
117 491
117 5
117 613
117 62
117 66
117 86
118 121
118 128
118 13
118 132
118 183
118 20
118 209
118 21
118 279
118 300
118 301
118 326
118 387
118 409
118 420
118 461
118 495
118 51
118 511
118 549
118 597
118 607
118 651
118 667
118 748
118 756
118 83
118 84
119 165
119 229
119 261
119 333
119 40
119 427
119 455
119 470
119 753
119 76
119 816
119 84
119 96
119 980
12 121
12 13
12 14
12 141
12 160
12 161
12 166
12 183
12 19
12 213
12 247
12 249
12 264
12 265
12 266
12 267
12 293
12 300
12 358
12 362
12 365
12 419
12 420
12 430
12 44
12 441
12 452
12 466
12 494
12 498
12 510
12 560
12 564
12 565
12 569
12 570
12 573
12 62
12 638
12 661
12 666
12 674
12 681
12 7
12 700
12 707
12 739
12 8
12 82
12 823
12 856
12 86
12 896
12 957
12 996
120 133
120 146
120 17
120 18
120 218
120 232
120 309
120 333
120 377
120 380
120 5
120 74
120 758
120 79
120 94
121 125
121 127
121 128
121 129
121 13
121 130
121 131
121 132
121 137
121 142
121 143
121 144
121 145
121 147
121 15
121 151
121 152
121 153
121 154
121 158
121 16
121 160
121 161
121 163
121 165
121 166
121 168
121 169
121 17
121 172
121 173
121 174
121 179
121 18
121 180
121 183
121 184
121 186
121 187
121 189
121 19
121 190
121 191
121 199
121 20
121 201
121 203
121 208
121 209
121 21
121 210
121 211
121 212
121 215
121 217
121 219
121 221
121 222
121 223
121 226
121 228
121 23
121 230
121 232
121 233
121 234
121 236
121 242
121 245
121 249
121 252
121 253
121 254
121 255
121 256
121 261
121 263
121 269
121 27
121 278
121 28
121 280
121 281
121 282
121 283
121 285
121 288
121 29
121 290
121 296
121 30
121 300
121 301
121 303
121 306
121 308
121 31
121 316
121 318
121 324
121 326
121 329
121 333
121 338
121 340
121 345
121 35
121 353
121 355
121 356
121 357
121 36
121 362
121 363
121 365
121 366
121 367
121 368
121 371
121 372
121 373
121 375
121 393
121 395
121 4
121 401
121 404
121 405
121 41
121 411
121 419
121 420
121 423
121 424
121 425
121 426
121 427
121 432
121 433
121 434
121 438
121 44
121 441
121 453
121 458
121 46
121 462
121 468
121 473
121 474
121 478
121 480
121 489
121 490
121 492
121 493
121 494
121 495
121 51
121 513
121 518
121 520
121 526
121 531
121 533
121 540
121 543
121 544
121 546
121 548
121 550
121 552
121 568
121 58
121 594
121 601
121 612
121 615
121 63
121 642
121 647
121 649
121 651
121 654
121 66
121 661
121 665
121 68
121 693
121 71
121 714
121 719
121 726
121 74
121 747
121 748
121 752
121 759
121 767
121 77
121 78
121 79
121 792
121 796
121 80
121 81
121 82
121 820
121 828
121 83
121 84
121 856
121 859
121 86
121 87
121 88
121 890
121 93
121 96
121 963
121 99
122 123
122 130
122 150
122 156
122 167
122 168
122 179
122 180
122 191
122 231
122 262
122 342
122 347
122 349
122 351
122 376
122 377
122 397
122 411
122 468
122 515
122 60
122 656
122 95
123 129
123 160
123 165
123 169
123 170
123 172
123 180
123 251
123 275
123 302
123 31
123 337
123 338
123 339
123 37
123 41
123 411
123 420
123 438
123 450
123 455
123 61
123 681
123 82
123 820
123 860
123 900
123 95
123 96
123 987
124 125
124 139
124 142
124 166
124 173
124 185
124 214
124 233
124 282
124 300
124 323
124 335
124 353
124 354
124 371
124 404
124 405
124 424
124 429
124 45
124 51
124 513
124 592
124 618
124 638
124 64
124 640
124 662
124 706
124 708
124 768
124 82
124 838
124 892
124 896
124 908
124 97
124 98
124 99
125 142
125 15
125 166
125 185
125 283
125 323
125 353
125 354
125 371
125 404
125 424
125 5
125 618
125 62
125 640
125 708
125 768
125 86
125 935
125 937
125 97
125 98
125 99
126 13
126 131
126 137
126 138
126 173
126 174
126 2
126 208
126 209
126 211
126 271
126 285
126 286
126 300
126 4
126 405
126 408
126 411
126 54
126 55
126 552
126 56
126 564
126 57
126 58
126 586
126 6
126 63
126 635
126 638
126 698
126 723
126 812
127 128
127 129
127 130
127 160
127 166
127 169
127 184
127 189
127 20
127 21
127 22
127 227
127 259
127 318
127 36
127 37
127 377
127 435
127 491
127 533
127 613
127 82
127 84
127 92
128 129
128 13
128 133
128 14
128 142
128 143
128 15
128 152
128 155
128 157
128 16
128 160
128 165
128 166
128 167
128 168
128 169
128 172
128 179
128 180
128 183
128 196
128 197
128 198
128 199
128 200
128 201
128 203
128 204
128 205
128 206
128 207
128 209
128 21
128 210
128 211
128 212
128 214
128 215
128 218
128 220
128 226
128 23
128 249
128 254
128 256
128 27
128 278
128 28
128 280
128 283
128 290
128 295
128 3
128 30
128 300
128 303
128 306
128 327
128 329
128 333
128 340
128 343
128 346
128 35
128 355
128 36
128 362
128 363
128 365
128 367
128 371
128 377
128 378
128 388
128 405
128 409
128 41
128 419
128 42
128 420
128 424
128 430
128 434
128 44
128 445
128 450
128 46
128 464
128 474
128 483
128 486
128 490
128 494
128 495
128 5
128 51
128 52
128 526
128 53
128 533
128 557
128 576
128 593
128 6
128 607
128 62
128 63
128 64
128 667
128 734
128 751
128 79
128 80
128 81
128 82
128 820
128 83
128 86
128 87
128 892
128 900
128 908
128 917
128 918
128 93
128 932
128 94
128 940
128 95
128 955
128 970
128 974
129 13
129 130
129 133
129 137
129 139
129 14
129 142
129 160
129 161
129 162
129 165
129 166
129 168
129 169
129 172
129 173
129 176
129 180
129 183
129 184
129 186
129 187
129 188
129 19
129 198
129 203
129 208
129 21
129 210
129 211
129 212
129 214
129 221
129 231
129 232
129 249
129 254
129 256
129 270
129 275
129 278
129 28
129 280
129 282
129 283
129 285
129 286
129 290
129 291
129 292
129 294
129 296
129 30
129 303
129 308
129 329
129 333
129 340
129 342
129 343
129 346
129 35
129 351
129 353
129 36
129 362
129 363
129 365
129 367
129 371
129 377
129 399
129 401
129 403
129 405
129 41
129 413
129 418
129 419
129 42
129 422
129 425
129 426
129 430
129 434
129 438
129 44
129 440
129 450
129 457
129 458
129 46
129 460
129 464
129 47
129 473
129 482
129 484
129 486
129 489
129 490
129 493
129 495
129 515
129 526
129 53
129 533
129 542
129 543
129 544
129 546
129 548
129 557
129 562
129 563
129 568
129 572
129 576
129 58
129 585
129 600
129 611
129 615
129 62
129 623
129 63
129 64
129 65
129 694
129 695
129 714
129 748
129 789
129 80
129 802
129 81
129 813
129 82
129 820
129 840
129 86
129 87
129 88
129 909
129 922
129 93
129 932
129 936
129 95
129 992
13 130
13 135
13 137
13 145
13 146
13 147
13 15
13 156
13 164
13 165
13 167
13 168
13 169
13 170
13 171
13 172
13 177
13 179
13 183
13 184
13 19
13 190
13 191
13 197
13 199
13 2
13 207
13 209
13 21
13 210
13 211
13 214
13 23
13 236
13 238
13 239
13 242
13 244
13 25
13 255
13 26
13 263
13 266
13 27
13 271
13 272
13 273
13 278
13 280
13 281
13 285
13 286
13 29
13 290
13 297
13 30
13 301
13 302
13 303
13 304
13 305
13 306
13 318
13 32
13 322
13 325
13 326
13 327
13 329
13 33
13 333
13 336
13 337
13 339
13 340
13 342
13 343
13 346
13 349
13 35
13 350
13 351
13 352
13 356
13 357
13 36
13 361
13 371
13 375
13 38
13 39
13 390
13 4
13 40
13 409
13 413
13 418
13 420
13 421
13 423
13 440
13 443
13 444
13 445
13 446
13 450
13 458
13 461
13 47
13 474
13 476
13 478
13 481
13 483
13 484
13 489
13 497
13 506
13 509
13 51
13 514
13 515
13 520
13 526
13 53
13 535
13 550
13 552
13 56
13 576
13 579
13 58
13 581
13 588
13 590
13 624
13 63
13 65
13 655
13 661
13 667
13 679
13 685
13 69
13 698
13 730
13 748
13 767
13 771
13 78
13 785
13 79
13 809
13 812
13 820
13 83
13 84
13 840
13 87
13 90
13 900
13 93
13 94
13 949
13 95
13 96
13 98
13 980
130 14
130 155
130 157
130 160
130 167
130 172
130 180
130 191
130 257
130 277
130 278
130 280
130 284
130 290
130 342
130 345
130 351
130 377
130 388
130 401
130 408
130 425
130 426
130 568
130 621
130 65
130 692
130 776
130 82
130 936
131 132
131 142
131 160
131 163
131 2
131 208
131 209
131 211
131 212
131 249
131 252
131 271
131 281
131 282
131 283
131 285
131 305
131 366
131 373
131 4
131 411
131 419
131 422
131 455
131 481
131 532
131 54
131 55
131 552
131 57
131 58
131 586
131 604
131 612
131 62
131 63
131 64
131 646
131 683
131 698
131 717
131 738
131 809
131 82
131 83
131 832
131 859
131 86
131 87
131 932
131 949
131 950
131 96
131 963
132 142
132 152
132 158
132 16
132 160
132 166
132 192
132 194
132 2
132 208
132 210
132 211
132 217
132 234
132 236
132 242
132 243
132 249
132 252
132 256
132 258
132 271
132 282
132 283
132 285
132 301
132 305
132 366
132 371
132 405
132 411
132 424
132 434
132 46
132 481
132 489
132 5
132 518
132 532
132 54
132 552
132 58
132 59
132 599
132 6
132 62
132 63
132 738
132 807
132 809
132 82
132 859
132 86
132 87
132 89
132 949
133 134
133 135
133 136
133 14
133 142
133 143
133 155
133 160
133 162
133 165
133 166
133 167
133 168
133 169
133 170
133 171
133 172
133 179
133 18
133 181
133 183
133 201
133 206
133 208
133 218
133 232
133 25
133 256
133 261
133 27
133 28
133 280
133 283
133 284
133 29
133 291
133 292
133 30
133 307
133 308
133 309
133 333
133 336
133 337
133 340
133 346
133 361
133 362
133 365
133 367
133 373
133 377
133 39
133 399
133 400
133 401
133 402
133 403
133 405
133 41
133 417
133 419
133 42
133 420
133 426
133 44
133 443
133 445
133 450
133 464
133 482
133 483
133 493
133 5
133 51
133 52
133 531
133 544
133 545
133 547
133 557
133 568
133 581
133 60
133 600
133 62
133 64
133 65
133 681
133 79
133 82
133 820
133 83
133 844
133 93
133 971
134 173
134 340
134 366
134 372
134 373
134 482
134 5
134 521
134 523
134 535
134 553
134 554
134 598
134 6
134 62
134 64
134 74
134 766
134 777
134 84
134 867
135 136
135 160
135 165
135 169
135 170
135 23
135 251
135 26
135 27
135 30
135 31
135 336
135 337
135 338
135 339
135 361
135 370
135 40
135 409
135 437
135 438
135 443
135 455
135 47
135 5
135 62
135 65
135 75
135 860
135 914
135 93
135 96
136 151
136 160
136 165
136 169
136 170
136 251
136 27
136 30
136 336
136 337
136 338
136 339
136 361
136 41
136 417
136 437
136 438
136 455
136 464
136 820
136 89
136 93
136 96
137 138
137 139
137 155
137 158
137 160
137 164
137 166
137 169
137 174
137 175
137 183
137 194
137 2
137 20
137 208
137 209
137 21
137 210
137 211
137 22
137 249
137 252
137 254
137 255
137 271
137 272
137 281
137 283
137 285
137 286
137 298
137 3
137 301
137 303
137 305
137 329
137 355
137 365
137 371
137 4
137 408
137 412
137 420
137 434
137 46
137 481
137 520
137 54
137 546
137 552
137 56
137 57
137 571
137 58
137 59
137 6
137 62
137 63
137 635
137 663
137 665
137 679
137 685
137 80
137 809
137 81
137 812
137 815
137 82
137 859
137 87
137 877
137 88
137 880
137 901
137 92
137 982
138 160
138 2
138 211
138 252
138 285
138 286
138 3
138 301
138 305
138 4
138 408
138 409
138 412
138 420
138 481
138 520
138 54
138 56
138 57
138 58
138 59
138 63
138 685
138 698
138 809
138 815
138 86
138 880
138 921
138 990
139 140
139 15
139 160
139 164
139 166
139 209
139 216
139 269
139 273
139 274
139 282
139 322
139 334
139 335
139 342
139 420
139 424
139 428
139 429
139 445
139 446
139 447
139 448
139 45
139 46
139 461
139 541
139 581
139 592
139 6
139 76
139 819
139 933
139 99
14 141
14 167
14 168
14 172
14 178
14 18
14 181
14 196
14 203
14 205
14 206
14 221
14 226
14 231
14 232
14 256
14 270
14 277
14 280
14 283
14 284
14 289
14 290
14 291
14 292
14 312
14 339
14 35
14 368
14 380
14 389
14 390
14 394
14 403
14 41
14 419
14 426
14 430
14 434
14 440
14 450
14 465
14 47
14 473
14 482
14 486
14 493
14 498
14 51
14 515
14 523
14 526
14 53
14 537
14 556
14 562
14 563
14 593
14 61
14 64
14 65
14 706
14 776
14 79
14 797
14 85
14 86
14 918
14 922
14 93
14 936
140 15
140 160
140 164
140 166
140 174
140 2
140 209
140 216
140 269
140 272
140 273
140 274
140 282
140 301
140 322
140 334
140 335
140 409
140 428
140 429
140 446
140 447
140 448
140 45
140 46
140 461
140 5
140 541
140 592
140 6
140 617
140 64
140 644
140 735
140 812
140 819
140 83
140 929
141 142
141 160
141 161
141 166
141 19
141 204
141 213
141 232
141 246
141 249
141 264
141 265
141 266
141 293
141 306
141 327
141 332
141 358
141 359
141 360
141 362
141 365
141 407
141 420
141 421
141 430
141 431
141 438
141 44
141 451
141 452
141 466
141 473
141 488
141 494
141 496
141 498
141 499
141 5
141 500
141 502
141 504
141 506
141 51
141 510
141 525
141 529
141 533
141 555
141 566
141 569
141 573
141 6
141 601
141 602
141 608
141 62
141 64
141 661
141 666
141 672
141 674
141 69
141 699
141 7
141 729
141 754
141 8
141 81
141 83
141 856
141 86
141 9
141 913
141 922
141 951
141 957
142 143
142 145
142 147
142 151
142 152
142 153
142 160
142 163
142 165
142 166
142 17
142 172
142 173
142 180
142 183
142 184
142 187
142 19
142 191
142 20
142 210
142 211
142 212
142 216
142 217
142 222
142 223
142 226
142 23
142 233
142 236
142 248
142 249
142 253
142 254
142 256
142 258
142 263
142 269
142 271
142 28
142 280
142 282
142 283
142 285
142 291
142 295
142 296
142 300
142 303
142 31
142 333
142 338
142 340
142 353
142 355
142 356
142 357
142 366
142 367
142 375
142 393
142 4
142 404
142 405
142 41
142 418
142 424
142 427
142 434
142 44
142 441
142 45
142 450
142 453
142 458
142 46
142 467
142 474
142 480
142 483
142 493
142 494
142 508
142 531
142 559
142 560
142 571
142 576
142 577
142 58
142 589
142 591
142 593
142 597
142 610
142 615
142 62
142 64
142 665
142 667
142 68
142 74
142 747
142 756
142 77
142 783
142 80
142 81
142 812
142 82
142 820
142 828
142 83
142 84
142 85
142 856
142 859
142 86
142 88
142 896
142 932
142 963
143 160
143 166
143 172
143 18
143 196
143 197
143 201
143 229
143 258
143 290
143 31
143 325
143 326
143 328
143 329
143 340
143 357
143 375
143 405
143 41
143 413
143 419
143 42
143 420
143 469
143 474
143 478
143 480
143 482
143 484
143 51
143 548
143 62
143 714
143 758
143 82
143 820
143 83
143 86
143 90
143 91
143 93
143 95
144 145
144 166
144 186
144 212
144 254
144 283
144 433
144 434
144 492
144 546
144 615
144 84
145 147
145 155
145 160
145 163
145 166
145 17
145 170
145 180
145 183
145 187
145 188
145 20
145 21
145 212
145 233
145 234
145 239
145 249
145 252
145 255
145 256
145 269
145 271
145 283
145 290
145 299
145 300
145 303
145 326
145 333
145 366
145 393
145 4
145 404
145 405
145 42
145 422
145 427
145 434
145 46
145 462
145 474
145 518
145 533
145 546
145 571
145 58
145 591
145 612
145 615
145 771
145 81
145 82
145 828
145 83
145 832
145 856
145 86
145 87
145 950
145 999
146 147
146 160
146 166
146 17
146 177
146 18
146 183
146 187
146 189
146 21
146 226
146 299
146 316
146 368
146 52
146 533
146 549
146 601
146 615
146 66
146 67
146 779
146 81
146 85
147 152
147 154
147 155
147 160
147 166
147 17
147 173
147 189
147 212
147 233
147 249
147 254
147 269
147 301
147 316
147 329
147 342
147 366
147 377
147 42
147 422
147 424
147 434
147 435
147 460
147 473
147 513
147 533
147 546
147 612
147 615
147 62
147 644
147 695
147 82
147 83
147 85
147 859
147 87
147 932
148 149
148 150
148 160
148 179
148 180
148 191
148 224
148 225
148 262
148 280
148 344
148 349
148 377
148 401
148 402
148 434
148 468
149 150
149 157
149 160
149 167
149 179
149 180
149 191
149 206
149 277
149 278
149 284
149 342
149 344
149 347
149 349
149 377
149 381
149 420
149 440
149 490
149 575
149 6
149 621
149 64
149 655
149 656
149 88
15 16
15 160
15 162
15 164
15 174
15 175
15 183
15 209
15 211
15 216
15 269
15 272
15 273
15 274
15 285
15 303
15 322
15 334
15 335
15 353
15 362
15 404
15 405
15 420
15 424
15 428
15 429
15 446
15 447
15 448
15 45
15 46
15 461
15 533
15 541
15 579
15 592
15 62
15 760
15 82
15 820
15 823
15 929
15 933
150 155
150 157
150 160
150 166
150 179
150 181
150 182
150 191
150 215
150 250
150 295
150 301
150 321
150 368
150 376
150 377
150 378
150 379
150 381
150 387
150 388
150 389
150 390
150 393
150 397
150 473
150 541
150 60
150 61
150 741
150 82
150 820
151 165
151 170
151 23
151 24
151 251
151 261
151 263
151 27
151 28
151 29
151 30
151 31
151 32
151 339
151 34
151 35
151 361
151 367
151 37
151 370
151 39
151 40
151 409
151 417
151 424
151 427
151 438
151 470
151 48
151 494
151 62
151 655
151 748
151 753
151 816
151 82
151 85
151 86
151 96
152 153
152 154
152 160
152 166
152 183
152 186
152 187
152 21
152 211
152 212
152 223
152 249
152 254
152 255
152 256
152 258
152 269
152 271
152 283
152 288
152 333
152 340
152 345
152 355
152 363
152 364
152 365
152 366
152 393
152 395
152 404
152 41
152 420
152 431
152 433
152 434
152 440
152 458
152 467
152 49
152 492
152 494
152 50
152 518
152 548
152 612
152 615
152 62
152 70
152 71
152 726
152 74
152 79
152 82
152 83
152 84
152 86
152 87
152 92
153 154
153 155
153 16
153 160
153 166
153 17
153 173
153 180
153 211
153 212
153 23
153 249
153 252
153 254
153 256
153 282
153 283
153 301
153 333
153 366
153 393
153 404
153 422
153 424
153 427
153 434
153 474
153 49
153 493
153 494
153 50
153 513
153 58
153 612
153 615
153 62
153 654
153 82
153 820
153 83
153 856
153 859
153 86
153 87
153 932
153 984
154 155
154 163
154 17
154 173
154 183
154 209
154 236
154 249
154 252
154 256
154 269
154 282
154 333
154 363
154 375
154 393
154 404
154 412
154 419
154 422
154 424
154 434
154 474
154 492
154 493
154 495
154 5
154 513
154 518
154 533
154 546
154 58
154 62
154 647
154 654
154 783
154 82
154 820
154 83
154 86
154 87
154 932
154 954
154 963
155 157
155 17
155 173
155 18
155 181
155 183
155 187
155 188
155 189
155 19
155 208
155 209
155 211
155 213
155 215
155 22
155 221
155 223
155 236
155 249
155 269
155 284
155 285
155 301
155 31
155 326
155 333
155 337
155 351
155 363
155 367
155 371
155 377
155 393
155 420
155 429
155 44
155 46
155 465
155 470
155 486
155 495
155 512
155 518
155 520
155 533
155 541
155 546
155 58
155 589
155 593
155 615
155 655
155 739
155 81
155 849
155 855
155 87
155 877
155 95
155 98
156 157
156 160
156 166
156 179
156 180
156 181
156 191
156 232
156 320
156 321
156 342
156 344
156 345
156 349
156 377
156 381
156 645
156 697
156 734
156 906
156 907
157 16
157 174
157 178
157 179
157 180
157 181
157 182
157 191
157 214
157 231
157 250
157 278
157 283
157 284
157 295
157 296
157 301
157 308
157 320
157 321
157 342
157 343
157 344
157 345
157 346
157 347
157 350
157 351
157 352
157 368
157 376
157 377
157 378
157 379
157 380
157 381
157 382
157 383
157 384
157 385
157 386
157 387
157 388
157 389
157 390
157 391
157 392
157 393
157 394
157 395
157 396
157 397
157 398
157 483
157 489
157 5
157 52
157 53
157 537
157 6
157 60
157 61
157 64
157 668
157 681
157 719
157 734
157 851
157 880
158 159
158 160
158 166
158 174
158 2
158 209
158 210
158 233
158 234
158 235
158 236
158 237
158 238
158 239
158 240
158 241
158 242
158 243
158 244
158 3
158 300
158 319
158 4
158 405
158 434
158 546
158 564
158 58
158 599
158 62
158 63
158 638
158 639
158 82
158 89
158 926
158 927
158 930
158 931
158 950
158 963
159 160
159 166
159 183
159 209
159 210
159 215
159 233
159 234
159 235
159 236
159 237
159 238
159 240
159 241
159 242
159 243
159 244
159 249
159 252
159 301
159 303
159 434
159 440
159 460
159 58
159 62
159 631
159 820
159 89
159 926
159 927
159 931
159 963
16 164
16 169
16 170
16 174
16 183
16 187
16 190
16 196
16 209
16 210
16 211
16 221
16 222
16 249
16 255
16 258
16 263
16 269
16 280
16 281
16 282
16 283
16 290
16 295
16 304
16 305
16 308
16 311
16 337
16 338
16 340
16 355
16 356
16 357
16 362
16 363
16 367
16 375
16 379
16 395
16 404
16 405
16 424
16 434
16 44
16 448
16 45
16 46
16 489
16 495
16 518
16 543
16 63
16 64
16 642
16 68
16 748
16 771
16 783
16 80
16 81
16 820
16 828
16 93
160 161
160 162
160 163
160 164
160 165
160 166
160 168
160 169
160 17
160 170
160 171
160 173
160 179
160 18
160 180
160 181
160 183
160 184
160 187
160 188
160 189
160 19
160 190
160 191
160 193
160 194
160 195
160 197
160 2
160 20
160 200
160 201
160 205
160 206
160 207
160 209
160 21
160 210
160 212
160 214
160 216
160 217
160 218
160 221
160 222
160 223
160 224
160 226
160 228
160 23
160 230
160 232
160 233
160 234
160 236
160 237
160 240
160 242
160 245
160 249
160 25
160 250
160 251
160 252
160 255
160 256
160 258
160 261
160 262
160 263
160 264
160 268
160 269
160 27
160 270
160 275
160 278
160 279
160 28
160 280
160 281
160 282
160 283
160 284
160 285
160 286
160 287
160 29
160 290
160 292
160 294
160 296
160 298
160 3
160 30
160 300
160 302
160 303
160 306
160 308
160 310
160 312
160 314
160 316
160 318
160 319
160 320
160 321
160 323
160 326
160 327
160 329
160 333
160 336
160 337
160 338
160 339
160 340
160 342
160 343
160 345
160 346
160 347
160 349
160 35
160 351
160 352
160 353
160 355
160 356
160 36
160 361
160 362
160 366
160 367
160 368
160 369
160 371
160 375
160 376
160 377
160 379
160 380
160 381
160 385
160 388
160 389
160 393
160 394
160 395
160 397
160 4
160 40
160 400
160 401
160 404
160 405
160 406
160 41
160 410
160 413
160 417
160 418
160 42
160 423
160 424
160 426
160 427
160 428
160 429
160 430
160 431
160 435
160 44
160 440
160 441
160 445
160 446
160 448
160 45
160 450
160 452
160 453
160 454
160 458
160 464
160 466
160 467
160 468
160 47
160 471
160 474
160 478
160 480
160 481
160 482
160 484
160 486
160 490
160 492
160 493
160 494
160 495
160 496
160 498
160 501
160 504
160 506
160 509
160 51
160 512
160 519
160 520
160 526
160 529
160 533
160 539
160 54
160 541
160 548
160 549
160 55
160 550
160 551
160 552
160 557
160 559
160 56
160 562
160 57
160 573
160 576
160 58
160 582
160 589
160 59
160 591
160 592
160 601
160 61
160 610
160 611
160 621
160 63
160 641
160 65
160 66
160 663
160 666
160 667
160 67
160 672
160 676
160 68
160 681
160 685
160 69
160 690
160 717
160 724
160 726
160 730
160 736
160 747
160 748
160 776
160 778
160 78
160 786
160 79
160 799
160 8
160 80
160 809
160 81
160 812
160 818
160 82
160 820
160 821
160 826
160 828
160 83
160 832
160 84
160 85
160 856
160 857
160 859
160 87
160 877
160 880
160 882
160 89
160 892
160 896
160 90
160 906
160 91
160 92
160 96
160 963
161 19
161 249
161 264
161 265
161 267
161 300
161 314
161 351
161 358
161 363
161 371
161 405
161 419
161 434
161 44
161 441
161 451
161 452
161 496
161 504
161 530
161 555
161 569
161 570
161 661
161 666
161 667
161 7
161 707
161 754
161 81
161 82
161 87
162 163
162 169
162 17
162 180
162 181
162 184
162 186
162 190
162 195
162 2
162 212
162 217
162 236
162 237
162 249
162 252
162 253
162 283
162 287
162 288
162 295
162 31
162 321
162 323
162 333
162 389
162 393
162 4
162 404
162 405
162 412
162 417
162 427
162 432
162 433
162 45
162 468
162 482
162 492
162 50
162 512
162 532
162 541
162 549
162 58
162 612
162 63
162 643
162 654
162 71
162 747
162 79
162 81
162 820
162 83
162 84
162 859
162 90
163 166
163 17
163 170
163 20
163 212
163 249
163 282
163 333
163 366
163 373
163 377
163 411
163 42
163 420
163 422
163 434
163 435
163 459
163 473
163 491
163 5
163 518
163 533
163 546
163 601
163 612
163 613
163 615
163 62
163 641
163 643
163 652
163 654
163 72
163 82
163 821
163 83
163 86
163 87
163 932
163 934
164 170
164 174
164 2
164 216
164 269
164 272
164 273
164 281
164 285
164 322
164 334
164 335
164 379
164 388
164 395
164 412
164 424
164 428
164 429
164 446
164 447
164 448
164 45
164 46
164 520
164 533
164 535
164 564
164 579
164 592
164 62
164 63
164 64
164 695
164 735
164 748
164 929
164 96
165 166
165 167
165 169
165 170
165 171
165 183
165 186
165 198
165 212
165 220
165 223
165 226
165 229
165 23
165 245
165 249
165 25
165 251
165 254
165 256
165 258
165 26
165 261
165 27
165 28
165 280
165 29
165 290
165 30
165 31
165 314
165 32
165 329
165 33
165 333
165 336
165 337
165 338
165 339
165 34
165 340
165 35
165 36
165 361
165 362
165 363
165 364
165 365
165 366
165 367
165 38
165 39
165 40
165 409
165 41
165 417
165 420
165 427
165 434
165 437
165 438
165 443
165 455
165 464
165 47
165 48
165 482
165 483
165 486
165 490
165 492
165 494
165 51
165 531
165 533
165 545
165 547
165 550
165 590
165 64
165 725
165 75
165 753
165 79
165 816
165 82
165 820
165 844
165 847
165 86
165 860
165 883
165 89
165 900
165 914
165 93
165 932
165 96
165 978
166 168
166 17
166 172
166 173
166 174
166 177
166 178
166 18
166 180
166 181
166 184
166 187
166 19
166 191
166 194
166 2
166 20
166 201
166 209
166 21
166 210
166 212
166 214
166 218
166 221
166 222
166 223
166 226
166 23
166 233
166 234
166 242
166 243
166 249
166 250
166 252
166 253
166 269
166 28
166 282
166 283
166 285
166 290
166 296
166 3
166 300
166 301
166 303
166 308
166 314
166 320
166 331
166 333
166 340
166 347
166 351
166 353
166 355
166 366
166 373
166 374
166 376
166 377
166 380
166 393
166 399
166 4
166 404
166 405
166 41
166 411
166 42
166 420
166 422
166 424
166 426
166 427
166 429
166 430
166 431
166 434
166 44
166 441
166 446
166 453
166 459
166 467
166 473
166 474
166 48
166 480
166 485
166 492
166 493
166 506
166 513
166 518
166 520
166 529
166 536
166 54
166 55
166 559
166 573
166 576
166 577
166 58
166 601
166 61
166 611
166 64
166 641
166 644
166 662
166 664
166 666
166 69
166 73
166 74
166 742
166 747
166 756
166 77
166 786
166 79
166 799
166 81
166 818
166 82
166 820
166 83
166 84
166 856
166 857
166 859
166 86
166 87
166 880
166 882
166 93
166 950
167 168
167 172
167 18
167 181
167 182
167 196
167 197
167 198
167 199
167 200
167 201
167 203
167 204
167 205
167 206
167 207
167 218
167 231
167 232
167 257
167 277
167 280
167 284
167 290
167 292
167 296
167 339
167 340
167 342
167 351
167 377
167 41
167 420
167 426
167 434
167 450
167 453
167 460
167 468
167 483
167 491
167 51
167 515
167 526
167 53
167 572
167 575
167 593
167 60
167 655
167 749
167 751
167 776
167 820
167 908
167 917
167 918
167 936
167 94
167 95
168 172
168 183
168 198
168 203
168 206
168 231
168 263
168 275
168 276
168 278
168 28
168 280
168 284
168 285
168 290
168 291
168 292
168 301
168 346
168 35
168 399
168 403
168 413
168 419
168 424
168 426
168 434
168 440
168 450
168 458
168 47
168 484
168 486
168 491
168 493
168 494
168 515
168 523
168 526
168 533
168 542
168 543
168 544
168 568
168 585
168 6
168 600
168 611
168 615
168 62
168 64
168 764
168 789
168 813
168 82
168 820
168 822
168 829
168 83
168 840
168 900
168 93
168 936
169 170
169 172
169 183
169 201
169 21
169 210
169 211
169 212
169 229
169 24
169 249
169 251
169 252
169 254
169 255
169 256
169 261
169 263
169 28
169 280
169 283
169 29
169 290
169 30
169 300
169 301
169 303
169 306
169 308
169 318
169 326
169 329
169 33
169 333
169 336
169 337
169 338
169 339
169 340
169 35
169 355
169 36
169 360
169 363
169 364
169 365
169 366
169 367
169 371
169 375
169 4
169 405
169 409
169 41
169 419
169 42
169 427
169 434
169 437
169 438
169 450
169 455
169 46
169 460
169 464
169 486
169 494
169 495
169 5
169 531
169 533
169 548
169 588
169 6
169 62
169 63
169 638
169 64
169 65
169 734
169 753
169 80
169 81
169 816
169 82
169 820
169 828
169 860
169 89
169 896
169 900
169 914
169 93
169 932
169 96
169 987
17 173
17 177
17 18
17 180
17 189
17 21
17 212
17 215
17 218
17 219
17 220
17 221
17 222
17 223
17 224
17 225
17 226
17 228
17 23
17 233
17 248
17 249
17 252
17 253
17 254
17 255
17 269
17 282
17 283
17 295
17 297
17 307
17 308
17 309
17 310
17 311
17 312
17 313
17 314
17 315
17 316
17 317
17 333
17 340
17 341
17 342
17 363
17 366
17 378
17 386
17 393
17 404
17 405
17 41
17 42
17 422
17 424
17 427
17 431
17 434
17 441
17 459
17 467
17 473
17 474
17 493
17 494
17 495
17 518
17 532
17 533
17 546
17 612
17 615
17 62
17 643
17 654
17 671
17 696
17 726
17 73
17 74
17 82
17 83
17 85
17 86
17 87
17 872
17 932
17 950
170 183
170 188
170 212
170 229
170 23
170 249
170 251
170 254
170 255
170 256
170 26
170 261
170 27
170 28
170 280
170 282
170 301
170 303
170 31
170 310
170 318
170 336
170 337
170 338
170 339
170 35
170 355
170 36
170 360
170 367
170 371
170 38
170 4
170 40
170 411
170 417
170 419
170 424
170 427
170 434
170 437
170 438
170 442
170 453
170 455
170 460
170 470
170 471
170 473
170 485
170 490
170 491
170 494
170 495
170 497
170 5
170 513
170 533
170 537
170 543
170 548
170 6
170 607
170 62
170 64
170 753
170 81
170 816
170 82
170 86
170 860
170 875
170 900
170 914
170 96
170 979
170 987
171 172
171 23
171 245
171 26
171 261
171 263
171 299
171 301
171 318
171 333
171 339
171 361
171 370
171 38
171 40
171 409
171 41
171 417
171 423
171 443
171 444
171 455
171 470
171 48
171 5
171 533
171 547
171 590
171 64
171 655
171 820
171 847
171 93
171 976
171 981
172 180
172 181
172 183
172 197
172 204
172 205
172 207
172 212
172 214
172 219
172 228
172 23
172 231
172 249
172 251
172 256
172 27
172 275
172 28
172 280
172 285
172 292
172 295
172 30
172 333
172 342
172 346
172 351
172 365
172 377
172 401
172 403
172 413
172 419
172 420
172 424
172 426
172 434
172 440
172 450
172 457
172 458
172 464
172 468
172 47
172 482
172 483
172 486
172 493
172 51
172 515
172 523
172 526
172 533
172 542
172 585
172 60
172 61
172 62
172 64
172 65
172 655
172 714
172 734
172 802
172 813
172 82
172 820
172 847
172 86
172 87
172 93
173 184
173 20
173 21
173 212
173 22
173 223
173 233
173 249
173 254
173 256
173 259
173 260
173 269
173 282
173 300
173 301
173 306
173 325
173 326
173 327
173 333
173 340
173 342
173 366
173 400
173 404
173 405
173 41
173 416
173 434
173 462
173 494
173 513
173 518
173 531
173 533
173 535
173 538
173 546
173 549
173 612
173 62
173 64
173 651
173 68
173 69
173 723
173 728
173 74
173 748
173 777
173 82
173 83
173 859
173 86
173 87
173 892
173 896
173 92
173 932
173 950
173 96
173 99
174 175
174 195
174 199
174 2
174 208
174 209
174 21
174 210
174 211
174 212
174 233
174 237
174 250
174 252
174 254
174 269
174 281
174 282
174 283
174 284
174 285
174 286
174 3
174 303
174 305
174 363
174 366
174 371
174 377
174 379
174 395
174 4
174 405
174 408
174 411
174 420
174 424
174 46
174 473
174 520
174 54
174 56
174 564
174 57
174 58
174 59
174 62
174 63
174 665
174 685
174 80
174 809
174 812
174 815
174 84
174 854
174 859
174 880
174 932
174 971
175 252
175 288
175 3
175 532
175 58
175 63
175 665
175 685
176 177
176 178
176 181
176 200
176 204
176 214
176 231
176 232
176 238
176 275
176 292
176 318
176 333
176 344
176 381
176 413
176 417
176 423
176 440
176 450
176 478
176 486
176 501
176 515
176 576
176 593
176 611
176 65
176 656
176 93
176 94
177 178
177 18
177 200
177 214
177 215
177 218
177 220
177 221
177 223
177 229
177 231
177 232
177 275
177 297
177 307
177 309
177 312
177 321
177 331
177 344
177 377
177 380
177 381
177 409
177 413
177 440
177 459
177 479
177 5
177 515
177 533
177 546
177 562
177 60
177 601
177 61
177 629
177 64
177 65
177 656
177 734
177 74
177 86
177 905
177 94
178 180
178 191
178 200
178 214
178 231
178 232
178 275
178 342
178 344
178 345
178 350
178 351
178 352
178 380
178 381
178 413
178 440
178 483
178 498
178 53
178 537
178 539
178 575
178 61
178 629
178 65
178 656
178 681
179 180
179 181
179 191
179 203
179 214
179 231
179 249
179 262
179 278
179 280
179 284
179 295
179 296
179 320
179 321
179 339
179 340
179 342
179 345
179 347
179 349
179 351
179 365
179 376
179 377
179 378
179 381
179 388
179 394
179 397
179 60
179 61
179 62
179 741
179 82
179 820
179 869
179 907
179 971
18 182
18 201
18 215
18 218
18 219
18 221
18 222
18 223
18 225
18 232
18 249
18 258
18 280
18 295
18 301
18 307
18 309
18 310
18 314
18 317
18 365
18 366
18 376
18 419
18 420
18 424
18 53
18 533
18 62
18 696
18 74
18 797
18 82
18 84
18 85
18 852
18 86
180 191
180 212
180 214
180 231
180 249
180 254
180 256
180 257
180 262
180 277
180 278
180 284
180 289
180 301
180 333
180 342
180 343
180 344
180 345
180 346
180 347
180 348
180 349
180 350
180 351
180 352
180 365
180 366
180 373
180 381
180 393
180 41
180 419
180 420
180 421
180 422
180 433
180 434
180 468
180 493
180 533
180 601
180 615
180 62
180 621
180 644
180 681
180 70
180 810
180 82
180 820
180 83
180 84
180 851
180 86
180 87
180 907
180 932
180 950
181 182
181 219
181 231
181 250
181 280
181 283
181 291
181 295
181 296
181 320
181 321
181 342
181 346
181 347
181 351
181 368
181 376
181 377
181 378
181 379
181 380
181 381
181 383
181 384
181 385
181 386
181 388
181 389
181 390
181 393
181 394
181 395
181 397
181 526
181 541
181 6
181 60
181 61
181 628
181 64
181 869
181 947
181 95
181 950
182 213
182 250
182 283
182 295
182 296
182 308
182 320
182 321
182 351
182 368
182 376
182 377
182 378
182 379
182 380
182 381
182 384
182 385
182 387
182 388
182 389
182 390
182 391
182 392
182 393
182 394
182 395
182 396
182 397
182 499
182 53
182 60
182 602
182 61
182 719
182 748
182 869
182 872
183 184
183 187
183 188
183 19
183 198
183 20
183 201
183 203
183 207
183 209
183 21
183 210
183 211
183 212
183 215
183 218
183 223
183 229
183 236
183 245
183 249
183 252
183 256
183 257
183 258
183 270
183 271
183 272
183 278
183 28
183 280
183 281
183 282
183 285
183 286
183 29
183 290
183 291
183 292
183 3
183 300
183 301
183 302
183 303
183 308
183 309
183 318
183 326
183 329
183 338
183 343
183 35
183 351
183 353
183 355
183 356
183 357
183 36
183 362
183 365
183 366
183 367
183 371
183 375
183 399
183 4
183 400
183 401
183 405
183 410
183 411
183 413
183 417
183 418
183 419
183 42
183 424
183 426
183 430
183 434
183 44
183 450
183 458
183 460
183 464
183 473
183 474
183 478
183 480
183 486
183 493
183 5
183 504
183 509
183 513
183 518
183 520
183 526
183 53
183 531
183 542
183 543
183 544
183 545
183 562
183 564
183 568
183 58
183 6
183 602
183 611
183 62
183 63
183 64
183 655
183 68
183 69
183 695
183 705
183 714
183 756
183 80
183 81
183 82
183 820
183 822
183 845
183 854
183 859
183 87
183 88
183 89
183 90
183 900
183 909
183 91
183 913
183 93
183 95
183 956
184 187
184 188
184 189
184 19
184 190
184 21
184 249
184 253
184 256
184 282
184 287
184 290
184 298
184 299
184 301
184 311
184 314
184 329
184 355
184 357
184 365
184 366
184 373
184 405
184 409
184 418
184 419
184 42
184 420
184 422
184 434
184 473
184 480
184 486
184 5
184 508
184 509
184 513
184 536
184 540
184 546
184 549
184 551
184 582
184 6
184 62
184 627
184 63
184 64
184 667
184 678
184 68
184 69
184 710
184 747
184 80
184 81
184 82
184 86
184 877
184 968
184 969
184 971
185 323
185 353
185 354
185 371
185 404
185 52
185 533
185 618
185 640
185 662
185 687
185 708
185 709
185 768
185 800
185 97
185 98
185 99
186 226
186 254
186 256
186 272
186 283
186 31
186 345
186 363
186 420
186 433
186 450
186 474
186 490
186 492
186 531
186 533
186 62
186 654
186 70
186 82
186 83
186 856
186 932
187 189
187 20
187 21
187 215
187 222
187 249
187 256
187 283
187 300
187 316
187 329
187 363
187 365
187 366
187 405
187 418
187 42
187 434
187 459
187 473
187 494
187 518
187 533
187 546
187 549
187 550
187 62
187 663
187 667
187 671
187 679
187 69
187 710
187 74
187 80
187 82
187 87
187 932
188 189
188 20
188 21
188 215
188 222
188 282
188 311
188 363
188 366
188 418
188 42
188 420
188 424
188 459
188 473
188 486
188 495
188 508
188 518
188 533
188 549
188 62
188 663
188 667
188 671
188 679
188 69
188 710
188 74
188 80
188 81
188 82
188 971
189 190
189 20
189 21
189 215
189 222
189 225
189 253
189 255
189 287
189 301
189 311
189 312
189 314
189 377
189 418
189 420
189 434
189 453
189 454
189 459
189 460
189 465
189 467
189 473
189 5
189 508
189 509
189 519
189 533
189 536
189 537
189 540
189 549
189 550
189 551
189 582
189 62
189 627
189 663
189 667
189 67
189 671
189 679
189 69
189 690
189 695
189 710
189 726
189 745
189 747
189 786
189 799
189 80
189 81
189 818
189 82
189 86
189 87
189 911
189 941
189 966
19 247
19 249
19 264
19 265
19 267
19 268
19 288
19 293
19 324
19 331
19 360
19 362
19 365
19 366
19 405
19 42
19 420
19 421
19 422
19 430
19 434
19 44
19 441
19 452
19 459
19 473
19 49
19 499
19 504
19 506
19 510
19 513
19 525
19 533
19 549
19 550
19 555
19 560
19 569
19 570
19 573
19 61
19 62
19 661
19 666
19 674
19 7
19 700
19 707
19 754
19 823
19 83
19 856
19 86
19 9
19 957
190 282
190 296
190 299
190 311
190 329
190 366
190 409
190 418
190 42
190 420
190 434
190 459
190 473
190 494
190 509
190 533
190 549
190 564
190 62
190 69
190 82
190 86
190 87
190 971
191 207
191 212
191 214
191 231
191 256
191 262
191 277
191 278
191 282
191 283
191 284
191 342
191 343
191 344
191 345
191 346
191 347
191 348
191 349
191 350
191 351
191 352
191 365
191 379
191 420
191 434
191 494
191 5
191 511
191 528
191 6
191 601
191 64
191 645
191 681
191 682
191 82
191 824
191 83
191 839
191 851
191 857
191 86
191 903
191 907
192 193
192 194
192 195
192 2
192 271
192 3
192 323
192 4
192 408
192 411
192 412
192 5
192 516
192 517
192 58
192 59
192 807
192 826
192 832
193 194
193 195
193 2
193 252
193 3
193 4
193 408
193 411
193 412
193 55
193 57
193 58
193 59
193 6
193 63
193 685
193 803
193 812
193 826
193 832
193 845
193 859
193 990
194 195
194 2
194 208
194 211
194 238
194 252
194 281
194 3
194 300
194 305
194 373
194 4
194 405
194 408
194 411
194 412
194 5
194 533
194 54
194 55
194 56
194 57
194 58
194 586
194 587
194 59
194 6
194 63
194 685
194 698
194 803
194 815
194 826
194 832
194 859
194 865
194 990
195 2
195 208
195 211
195 252
195 281
195 286
195 3
195 305
195 4
195 411
195 412
195 5
195 516
195 517
195 520
195 533
195 552
195 57
195 58
195 586
195 59
195 6
195 63
195 738
195 803
195 809
195 826
195 832
195 859
196 197
196 198
196 199
196 200
196 201
196 203
196 204
196 205
196 206
196 207
196 218
196 231
196 280
196 282
196 41
196 424
196 51
196 593
196 64
196 776
196 820
196 86
196 908
196 917
196 918
196 94
196 95
196 971
197 198
197 199
197 201
197 205
197 206
197 207
197 215
197 27
197 373
197 409
197 41
197 457
197 494
197 498
197 51
197 52
197 593
197 601
197 64
197 65
197 820
197 86
197 908
197 917
197 918
197 93
197 95
197 955
198 199
198 200
198 201
198 202
198 203
198 204
198 205
198 206
198 207
198 229
198 258
198 290
198 31
198 329
198 387
198 41
198 419
198 434
198 485
198 5
198 51
198 593
198 64
198 689
198 776
198 820
198 94
198 95
199 200
199 201
199 203
199 204
199 205
199 206
199 207
199 218
199 258
199 278
199 280
199 288
199 296
199 301
199 338
199 342
199 377
199 399
199 41
199 419
199 42
199 434
199 51
199 526
199 53
199 593
199 64
199 65
199 677
199 776
199 82
199 820
199 83
199 850
199 908
199 917
199 918
199 94
199 95
2 208
2 211
2 238
2 249
2 252
2 271
2 273
2 281
2 283
2 285
2 286
2 3
2 300
2 305
2 308
2 323
2 333
2 4
2 405
2 408
2 409
2 411
2 412
2 434
2 481
2 489
2 494
2 5
2 506
2 516
2 517
2 520
2 54
2 546
2 55
2 56
2 564
2 57
2 571
2 58
2 586
2 587
2 59
2 599
2 6
2 612
2 62
2 63
2 635
2 64
2 651
2 665
2 685
2 698
2 738
2 803
2 809
2 812
2 826
2 832
2 845
2 859
2 86
2 865
2 880
2 886
2 89
2 896
2 899
2 96
2 971
2 990
20 21
20 215
20 22
20 222
20 223
20 230
20 253
20 259
20 260
20 271
20 28
20 282
20 287
20 301
20 306
20 326
20 327
20 329
20 366
20 400
20 409
20 42
20 420
20 424
20 459
20 462
20 467
20 480
20 495
20 519
20 520
20 533
20 536
20 537
20 560
20 62
20 68
20 690
20 695
20 715
20 72
20 728
20 74
20 80
20 81
20 82
20 83
20 86
20 87
20 885
20 887
20 92
20 932
20 96
20 971
200 201
200 204
200 206
200 207
200 275
200 344
200 380
200 41
200 413
200 434
200 440
200 498
200 51
200 562
200 581
200 593
200 65
200 776
200 777
200 820
200 908
200 917
200 918
200 94
200 95
201 202
201 203
201 204
201 205
201 206
201 207
201 215
201 218
201 231
201 232
201 249
201 278
201 280
201 283
201 342
201 352
201 395
201 41
201 420
201 473
201 486
201 5
201 51
201 533
201 557
201 593
201 62
201 64
201 776
201 82
201 820
201 86
201 908
201 917
201 918
201 93
201 94
201 95
202 206
202 41
202 562
202 623
202 820
203 204
203 206
203 231
203 249
203 277
203 280
203 284
203 291
203 294
203 296
203 342
203 351
203 376
203 377
203 41
203 434
203 495
203 548
203 62
203 776
203 82
203 820
203 829
203 83
203 86
203 95
204 205
204 206
204 218
204 232
204 280
204 283
204 350
204 377
204 41
204 51
204 533
204 581
204 593
204 6
204 65
204 776
204 820
204 908
204 917
204 918
204 93
204 936
204 94
204 95
205 206
205 41
205 483
205 498
205 51
205 557
205 581
205 593
205 79
205 820
205 847
205 86
205 908
205 917
205 922
205 925
205 93
205 94
205 95
205 955
206 207
206 214
206 231
206 232
206 277
206 280
206 284
206 290
206 291
206 292
206 294
206 307
206 342
206 346
206 352
206 41
206 426
206 440
206 51
206 515
206 546
206 575
206 588
206 593
206 6
206 62
206 65
206 751
206 776
206 786
206 793
206 820
206 852
206 86
206 908
206 917
206 918
206 936
206 94
206 95
207 214
207 343
207 377
207 409
207 41
207 5
207 820
207 908
207 917
207 918
207 94
207 95
208 210
208 211
208 236
208 249
208 281
208 285
208 3
208 305
208 329
208 363
208 371
208 4
208 408
208 411
208 434
208 481
208 495
208 520
208 54
208 546
208 55
208 552
208 564
208 57
208 58
208 599
208 63
208 635
208 685
208 698
208 738
208 809
208 812
208 815
208 820
208 87
208 930
209 210
209 211
209 233
209 234
209 235
209 236
209 237
209 238
209 240
209 241
209 242
209 243
209 244
209 249
209 252
209 271
209 273
209 282
209 283
209 285
209 286
209 300
209 301
209 303
209 319
209 365
209 371
209 411
209 42
209 420
209 424
209 490
209 494
209 5
209 518
209 541
209 543
209 546
209 56
209 564
209 58
209 587
209 599
209 601
209 62
209 63
209 631
209 637
209 639
209 64
209 71
209 812
209 82
209 83
209 84
209 845
209 88
209 909
209 924
209 96
209 963
209 977
21 210
21 211
21 212
21 214
21 22
21 221
21 222
21 230
21 249
21 253
21 254
21 256
21 259
21 260
21 272
21 274
21 278
21 28
21 280
21 282
21 283
21 287
21 29
21 296
21 300
21 301
21 303
21 306
21 308
21 314
21 325
21 326
21 327
21 329
21 333
21 346
21 355
21 357
21 36
21 363
21 364
21 365
21 367
21 371
21 375
21 400
21 405
21 409
21 41
21 42
21 420
21 422
21 424
21 434
21 44
21 459
21 46
21 462
21 467
21 480
21 486
21 489
21 495
21 5
21 513
21 518
21 519
21 520
21 533
21 537
21 548
21 550
21 551
21 560
21 581
21 6
21 615
21 62
21 624
21 64
21 642
21 647
21 671
21 68
21 686
21 690
21 695
21 715
21 72
21 728
21 74
21 777
21 787
21 80
21 81
21 82
21 820
21 83
21 86
21 87
21 885
21 896
21 92
21 932
21 96
21 966
210 211
210 212
210 233
210 234
210 235
210 236
210 237
210 238
210 240
210 241
210 242
210 243
210 244
210 245
210 249
210 252
210 254
210 255
210 256
210 269
210 271
210 282
210 283
210 290
210 295
210 3
210 300
210 303
210 305
210 329
210 351
210 355
210 363
210 365
210 371
210 405
210 420
210 424
210 434
210 45
210 46
210 489
210 494
210 513
210 533
210 546
210 58
210 62
210 63
210 638
210 810
210 82
210 83
210 84
210 86
210 87
210 88
210 926
210 927
210 931
210 932
210 963
211 212
211 214
211 215
211 236
211 238
211 240
211 243
211 249
211 252
211 254
211 255
211 256
211 258
211 269
211 271
211 281
211 283
211 285
211 286
211 290
211 3
211 301
211 303
211 304
211 305
211 308
211 329
211 333
211 338
211 340
211 355
211 363
211 364
211 365
211 371
211 375
211 389
211 4
211 402
211 405
211 408
211 411
211 412
211 419
211 420
211 424
211 430
211 434
211 44
211 45
211 450
211 455
211 46
211 460
211 462
211 464
211 469
211 473
211 48
211 480
211 481
211 489
211 495
211 5
211 506
211 513
211 518
211 532
211 54
211 546
211 55
211 552
211 56
211 560
211 57
211 571
211 58
211 582
211 586
211 599
211 6
211 604
211 611
211 612
211 62
211 63
211 636
211 64
211 646
211 654
211 66
211 661
211 683
211 695
211 698
211 705
211 730
211 734
211 738
211 754
211 755
211 764
211 807
211 809
211 81
211 82
211 83
211 84
211 842
211 845
211 859
211 87
211 88
211 89
211 924
211 928
211 932
211 949
211 96
211 990
212 223
212 226
212 23
212 233
212 249
212 252
212 253
212 255
212 256
212 268
212 269
212 28
212 282
212 283
212 288
212 296
212 303
212 329
212 333
212 340
212 355
212 357
212 363
212 364
212 365
212 367
212 371
212 393
212 404
212 405
212 408
212 41
212 411
212 42
212 420
212 422
212 424
212 427
212 431
212 434
212 44
212 450
212 453
212 459
212 462
212 474
212 48
212 489
212 490
212 492
212 493
212 494
212 508
212 509
212 518
212 531
212 544
212 546
212 549
212 550
212 576
212 58
212 589
212 612
212 62
212 63
212 64
212 641
212 642
212 665
212 68
212 69
212 7
212 70
212 726
212 74
212 77
212 81
212 82
212 820
212 83
212 856
212 859
212 86
212 87
212 91
212 932
213 246
213 247
213 264
213 265
213 266
213 320
213 332
213 358
213 359
213 360
213 407
213 421
213 44
213 441
213 452
213 466
213 473
213 487
213 496
213 498
213 499
213 503
213 525
213 529
213 533
213 558
213 573
213 602
213 608
213 61
213 7
213 700
213 707
213 720
213 8
213 823
213 9
213 913
213 951
213 956
213 957
214 215
214 231
214 232
214 277
214 278
214 280
214 284
214 294
214 301
214 342
214 343
214 345
214 346
214 351
214 352
214 377
214 413
214 419
214 434
214 450
214 460
214 483
214 495
214 536
214 593
214 60
214 681
214 82
214 83
214 851
214 94
214 95
215 218
215 220
215 221
215 222
215 223
215 225
215 227
215 23
215 248
215 249
215 255
215 262
215 268
215 283
215 295
215 296
215 297
215 301
215 306
215 309
215 311
215 313
215 314
215 316
215 331
215 340
215 341
215 347
215 363
215 366
215 377
215 400
215 408
215 41
215 411
215 42
215 434
215 440
215 459
215 460
215 494
215 495
215 5
215 511
215 53
215 541
215 549
215 560
215 58
215 589
215 60
215 64
215 650
215 66
215 690
215 717
215 73
215 74
215 747
215 756
215 81
215 812
215 82
215 820
215 86
215 87
215 89
215 905
216 254
216 269
216 272
216 273
216 274
216 301
216 428
216 429
216 446
216 448
216 45
216 46
216 461
216 509
216 579
216 592
216 62
216 64
216 69
216 971
217 282
217 288
217 340
217 366
217 404
217 431
217 432
217 433
217 49
217 50
217 521
217 612
217 643
217 654
217 70
217 71
217 812
217 84
217 886
218 219
218 220
218 221
218 222
218 223
218 224
218 225
218 226
218 228
218 248
218 249
218 268
218 282
218 288
218 297
218 300
218 307
218 308
218 309
218 310
218 311
218 312
218 313
218 314
218 315
218 316
218 317
218 340
218 341
218 36
218 366
218 420
218 459
218 482
218 495
218 5
218 513
218 549
218 560
218 596
218 696
218 73
218 74
218 82
218 85
218 86
218 872
218 94
218 95
219 222
219 232
219 280
219 309
219 314
219 342
219 377
219 483
219 60
219 74
219 79
219 82
22 258
22 301
22 35
22 520
22 686
22 92
220 223
220 23
220 377
220 434
220 47
220 68
220 74
220 90
221 222
221 223
221 224
221 225
221 226
221 248
221 249
221 256
221 268
221 280
221 282
221 283
221 309
221 310
221 312
221 313
221 314
221 316
221 317
221 403
221 405
221 419
221 42
221 434
221 459
221 468
221 480
221 485
221 493
221 52
221 526
221 53
221 537
221 546
221 549
221 560
221 647
221 73
221 74
221 745
221 82
221 83
221 85
222 223
222 225
222 226
222 227
222 249
222 253
222 255
222 256
222 268
222 282
222 301
222 309
222 310
222 311
222 312
222 314
222 315
222 316
222 331
222 341
222 365
222 400
222 420
222 424
222 459
222 467
222 494
222 495
222 513
222 519
222 537
222 543
222 560
222 607
222 64
222 690
222 695
222 696
222 7
222 74
222 748
222 80
222 81
222 810
222 82
222 85
222 86
222 87
222 905
222 911
223 225
223 226
223 228
223 256
223 268
223 282
223 309
223 311
223 313
223 314
223 316
223 317
223 330
223 331
223 365
223 366
223 459
223 468
223 480
223 495
223 518
223 560
223 612
223 624
223 64
223 655
223 73
223 74
223 756
223 758
223 83
223 86
223 87
224 256
224 309
224 365
224 468
224 560
224 64
224 74
225 226
225 282
225 283
225 301
225 309
225 311
225 312
225 314
225 331
225 409
225 459
225 460
225 494
225 74
225 756
225 81
225 82
225 86
226 227
226 228
226 232
226 254
226 256
226 275
226 282
226 283
226 300
226 301
226 307
226 309
226 313
226 314
226 317
226 340
226 365
226 366
226 370
226 371
226 390
226 405
226 419
226 42
226 434
226 440
226 443
226 459
226 483
226 494
226 513
226 518
226 533
226 546
226 62
226 696
226 74
226 79
226 82
226 85
226 86
226 892
227 253
227 254
227 268
227 377
227 405
227 495
227 519
227 537
227 695
227 74
227 756
227 82
227 87
227 932
228 253
228 280
228 301
228 309
228 312
228 314
228 342
228 377
228 450
228 482
228 495
228 519
228 695
228 74
228 82
229 23
229 28
229 29
229 30
229 31
229 338
229 366
229 37
229 387
229 39
229 434
229 48
229 489
229 494
229 513
229 536
229 560
229 64
229 721
229 84
229 86
23 24
23 249
23 25
23 251
23 254
23 26
23 261
23 27
23 28
23 29
23 30
23 301
23 31
23 32
23 33
23 333
23 337
23 34
23 35
23 36
23 367
23 37
23 38
23 39
23 40
23 409
23 41
23 417
23 42
23 421
23 422
23 427
23 434
23 438
23 460
23 464
23 474
23 480
23 494
23 533
23 545
23 546
23 588
23 590
23 62
23 785
23 82
23 820
23 83
23 86
23 87
23 878
23 932
23 950
23 953
23 96
23 964
230 282
230 283
230 333
230 366
230 375
230 420
230 424
230 5
230 533
230 62
230 74
230 80
230 82
230 898
230 920
231 232
231 249
231 257
231 262
231 277
231 278
231 280
231 284
231 289
231 290
231 292
231 316
231 342
231 343
231 344
231 347
231 351
231 377
231 385
231 426
231 434
231 440
231 457
231 466
231 526
231 53
231 537
231 575
231 60
231 621
231 624
231 645
231 65
231 655
231 656
231 692
231 730
231 74
231 797
231 820
231 841
231 871
231 936
232 241
232 263
232 264
232 265
232 266
232 275
232 277
232 280
232 284
232 291
232 292
232 294
232 312
232 320
232 321
232 358
232 368
232 380
232 397
232 41
232 413
232 426
232 440
232 450
232 457
232 473
232 483
232 484
232 486
232 493
232 498
232 499
232 5
232 501
232 51
232 515
232 52
232 525
232 526
232 53
232 537
232 556
232 557
232 562
232 575
232 576
232 6
232 60
232 608
232 61
232 611
232 64
232 65
232 705
232 707
232 804
232 820
232 840
232 872
232 918
232 936
232 939
232 95
232 971
233 234
233 235
233 236
233 237
233 238
233 239
233 240
233 241
233 242
233 243
233 244
233 252
233 254
233 282
233 288
233 333
233 366
233 404
233 424
233 433
233 434
233 441
233 460
233 474
233 494
233 532
233 546
233 58
233 586
233 601
233 612
233 62
233 63
233 637
233 654
233 70
233 82
233 828
233 83
233 84
233 86
233 87
233 88
233 932
234 235
234 236
234 237
234 238
234 239
234 240
234 241
234 242
234 243
234 244
234 252
234 256
234 269
234 282
234 283
234 319
234 366
234 404
234 474
234 494
234 5
234 533
234 58
234 587
234 6
234 637
234 639
234 64
234 654
234 82
234 828
234 86
234 926
234 927
234 930
234 931
234 96
234 963
235 236
235 238
235 240
235 242
235 243
235 244
235 252
235 303
235 319
235 360
235 420
235 5
235 610
235 84
235 930
235 96
235 963
235 971
236 237
236 238
236 240
236 241
236 242
236 243
236 244
236 249
236 252
236 269
236 3
236 303
236 319
236 363
236 371
236 434
236 46
236 5
236 533
236 587
236 62
236 63
236 82
236 83
236 86
236 87
236 930
236 932
236 96
236 963
237 238
237 240
237 241
237 242
237 243
237 244
237 252
237 253
237 319
237 424
237 5
237 587
237 6
237 62
237 926
237 927
237 932
237 963
238 239
238 241
238 242
238 243
238 244
238 252
238 302
238 412
238 440
238 457
238 498
238 499
238 506
238 525
238 587
238 601
238 602
238 62
238 622
238 64
238 700
238 758
238 86
238 89
238 92
238 930
238 931
238 963
239 243
239 3
239 373
239 4
239 63
24 25
24 26
24 261
24 27
24 28
24 29
24 30
24 31
24 32
24 33
24 34
24 35
24 36
24 367
24 37
24 38
24 39
24 40
24 411
24 440
24 455
24 494
24 5
24 545
24 588
24 590
24 609
24 64
24 654
24 953
24 96
24 964
24 988
24 997
240 241
240 242
240 243
240 373
240 424
240 57
240 931
240 963
241 242
241 243
241 244
241 252
241 440
241 498
241 499
241 592
241 927
241 963
242 243
242 303
242 5
242 533
242 564
242 599
242 62
242 879
242 926
242 927
242 96
242 963
242 977
243 244
243 249
243 252
243 271
243 305
243 319
243 373
243 375
243 411
243 412
243 42
243 434
243 5
243 507
243 537
243 57
243 58
243 607
243 613
243 615
243 63
243 64
243 80
243 820
243 83
243 84
243 859
243 87
243 926
243 930
243 931
243 950
243 963
244 252
244 301
244 303
244 409
244 420
244 422
244 460
244 58
244 615
244 64
244 810
244 84
244 963
245 263
245 301
245 318
245 326
245 329
245 333
245 337
245 338
245 339
245 361
245 365
245 367
245 370
245 38
245 40
245 405
245 417
245 42
245 423
245 424
245 426
245 434
245 442
245 443
245 444
245 455
245 47
245 48
245 485
245 486
245 546
245 547
245 62
245 686
245 725
245 76
245 82
245 925
245 96
245 976
245 981
246 247
246 266
246 298
246 421
246 430
246 44
246 498
246 499
246 504
246 530
246 608
246 649
246 7
246 765
246 856
247 264
247 267
247 358
247 498
247 506
247 525
247 566
247 570
247 661
247 7
247 700
247 707
248 259
248 260
248 268
248 282
248 297
248 301
248 309
248 311
248 317
248 330
248 341
248 366
248 372
248 422
248 459
248 549
248 612
248 696
248 73
248 74
249 252
249 253
249 255
249 256
249 258
249 278
249 28
249 280
249 282
249 283
249 286
249 296
249 3
249 301
249 303
249 310
249 327
249 329
249 333
249 340
249 351
249 353
249 355
249 356
249 357
249 362
249 363
249 365
249 366
249 367
249 371
249 377
249 388
249 393
249 401
249 404
249 405
249 407
249 41
249 419
249 42
249 420
249 421
249 424
249 427
249 430
249 431
249 434
249 438
249 44
249 440
249 441
249 459
249 46
249 460
249 462
249 464
249 473
249 474
249 489
249 490
249 493
249 495
249 5
249 505
249 506
249 513
249 518
249 530
249 531
249 533
249 54
249 541
249 543
249 546
249 548
249 550
249 569
249 577
249 58
249 589
249 602
249 607
249 615
249 62
249 63
249 64
249 642
249 654
249 661
249 671
249 672
249 695
249 7
249 747
249 765
249 80
249 81
249 82
249 820
249 83
249 833
249 84
249 856
249 859
249 87
249 932
249 950
249 954
25 26
25 27
25 28
25 29
25 30
25 301
25 339
25 34
25 35
25 36
25 361
25 37
25 370
25 38
25 40
25 409
25 437
25 438
25 459
25 473
25 494
25 533
25 545
25 588
25 654
25 93
250 295
250 296
250 320
250 321
250 351
250 368
250 376
250 377
250 379
250 387
250 390
250 393
250 394
250 395
250 495
250 526
250 60
250 61
250 610
250 741
250 84
251 26
251 27
251 30
251 32
251 336
251 338
251 339
251 340
251 361
251 370
251 40
251 417
251 437
251 438
251 443
251 455
251 47
251 62
251 86
251 860
251 900
251 914
251 96
251 971
252 254
252 269
252 271
252 272
252 273
252 281
252 282
252 283
252 285
252 286
252 288
252 3
252 302
252 303
252 304
252 305
252 333
252 338
252 369
252 389
252 4
252 404
252 408
252 411
252 412
252 419
252 427
252 434
252 46
252 48
252 480
252 481
252 494
252 5
252 518
252 520
252 533
252 54
252 546
252 55
252 552
252 56
252 57
252 571
252 58
252 59
252 6
252 601
252 611
252 615
252 625
252 63
252 654
252 66
252 661
252 685
252 738
252 740
252 803
252 809
252 81
252 812
252 82
252 826
252 83
252 832
252 84
252 845
252 849
252 854
252 859
252 87
252 88
252 880
252 89
252 924
252 932
252 949
252 96
253 258
253 259
253 282
253 283
253 315
253 316
253 333
253 366
253 373
253 405
253 418
253 419
253 434
253 459
253 509
253 607
253 615
253 62
253 671
253 75
253 80
253 83
253 84
253 87
253 932
254 255
254 256
254 269
254 28
254 282
254 283
254 285
254 290
254 296
254 303
254 31
254 329
254 340
254 345
254 355
254 366
254 367
254 371
254 393
254 404
254 41
254 420
254 427
254 433
254 44
254 441
254 445
254 453
254 458
254 46
254 462
254 474
254 490
254 492
254 493
254 495
254 518
254 531
254 58
254 62
254 63
254 642
254 651
254 665
254 74
254 77
254 81
254 820
254 84
254 859
254 932
255 256
255 282
255 283
255 284
255 295
255 300
255 303
255 312
255 314
255 316
255 329
255 355
255 363
255 365
255 366
255 371
255 405
255 419
255 42
255 421
255 424
255 434
255 453
255 46
255 471
255 472
255 483
255 5
255 545
255 546
255 607
255 610
255 62
255 63
255 694
255 712
255 82
255 83
255 87
255 932
256 258
256 263
256 269
256 271
256 278
256 28
256 280
256 282
256 283
256 290
256 291
256 296
256 3
256 30
256 303
256 304
256 306
256 308
256 31
256 312
256 314
256 318
256 333
256 338
256 340
256 345
256 351
256 355
256 356
256 357
256 362
256 363
256 365
256 366
256 367
256 371
256 4
256 401
256 405
256 41
256 412
256 419
256 420
256 424
256 425
256 434
256 445
256 450
256 46
256 460
256 462
256 471
256 473
256 474
256 489
256 490
256 492
256 493
256 495
256 51
256 518
256 531
256 534
256 542
256 546
256 548
256 552
256 557
256 568
256 58
256 589
256 607
256 62
256 63
256 647
256 705
256 748
256 80
256 802
256 81
256 82
256 820
256 83
256 86
256 87
257 278
257 284
257 291
257 342
257 377
257 401
257 425
257 426
257 450
257 526
257 543
257 544
257 568
257 65
258 27
258 282
258 328
258 329
258 347
258 356
258 357
258 365
258 375
258 38
258 402
258 410
258 417
258 421
258 424
258 434
258 454
258 468
258 469
258 474
258 476
258 477
258 478
258 490
258 559
258 564
258 62
258 66
258 802
258 831
258 87
258 90
258 91
258 932
259 260
259 297
259 327
259 400
259 508
259 509
259 519
259 536
259 537
259 69
259 695
259 72
259 728
259 73
259 74
259 777
259 818
259 83
259 86
259 89
259 92
259 96
26 27
26 28
26 29
26 30
26 32
26 339
26 34
26 35
26 37
26 370
26 38
26 40
26 437
26 438
26 442
26 443
26 47
26 545
26 588
26 590
26 654
26 953
26 971
260 297
260 311
260 325
260 331
260 336
260 400
260 508
260 509
260 69
260 728
260 74
260 89
260 92
260 93
260 950
261 27
261 28
261 29
261 30
261 31
261 32
261 333
261 339
261 35
261 361
261 367
261 37
261 40
261 411
261 427
261 437
261 438
261 443
261 455
261 470
261 48
261 486
261 494
261 5
261 51
261 655
261 75
261 753
261 82
261 86
261 93
261 96
261 980
261 986
262 278
262 301
262 342
262 344
262 345
262 347
262 349
262 376
262 377
262 402
262 511
262 533
262 62
262 656
262 814
262 903
262 907
263 274
263 280
263 283
263 29
263 290
263 30
263 300
263 301
263 303
263 318
263 333
263 338
263 361
263 367
263 405
263 411
263 417
263 419
263 423
263 424
263 426
263 438
263 442
263 443
263 444
263 455
263 47
263 48
263 485
263 486
263 527
263 531
263 547
263 564
263 62
263 686
263 76
263 82
263 847
263 86
263 897
263 919
263 925
263 96
263 976
263 981
264 265
264 266
264 267
264 358
264 359
264 406
264 440
264 441
264 452
264 498
264 499
264 500
264 510
264 533
264 569
264 570
264 608
264 61
264 65
264 661
264 7
264 700
264 707
264 804
264 823
264 856
264 86
264 9
265 266
265 267
265 359
265 360
265 407
265 440
265 451
265 452
265 466
265 498
265 500
265 503
265 525
265 529
265 533
265 555
265 570
265 608
265 61
265 661
265 674
265 7
265 707
265 8
265 804
265 823
265 856
265 9
265 957
266 267
266 324
266 358
266 407
266 440
266 441
266 466
266 498
266 500
266 525
266 533
266 555
266 565
266 608
266 61
266 7
266 720
266 754
266 804
266 9
266 950
267 359
267 466
267 498
267 570
267 608
267 61
267 661
267 666
267 674
267 700
267 707
268 282
268 295
268 300
268 301
268 309
268 311
268 313
268 316
268 340
268 390
268 405
268 419
268 421
268 459
268 494
268 496
268 513
268 537
268 549
268 73
268 74
268 756
268 84
268 934
269 272
269 273
269 274
269 282
269 288
269 300
269 301
269 303
269 322
269 333
269 334
269 335
269 365
269 371
269 404
269 420
269 422
269 424
269 428
269 429
269 434
269 446
269 447
269 448
269 45
269 46
269 461
269 473
269 474
269 5
269 513
269 533
269 546
269 579
269 592
269 615
269 617
269 62
269 63
269 64
269 643
269 644
269 657
269 735
269 810
269 82
269 820
269 83
269 84
269 859
269 87
269 929
269 932
269 933
27 28
27 29
27 30
27 301
27 31
27 32
27 33
27 336
27 337
27 338
27 339
27 34
27 35
27 36
27 361
27 37
27 370
27 38
27 39
27 40
27 409
27 417
27 437
27 438
27 48
27 494
27 51
27 545
27 560
27 588
27 590
27 62
27 721
27 722
27 82
27 878
27 883
27 917
27 93
27 953
27 997
270 278
270 28
270 280
270 419
270 426
270 486
270 493
270 515
270 611
270 84
271 272
271 273
271 281
271 282
271 283
271 285
271 3
271 301
271 303
271 304
271 305
271 323
271 333
271 366
271 4
271 400
271 408
271 411
271 412
271 448
271 45
271 455
271 46
271 470
271 481
271 5
271 513
271 518
271 528
271 54
271 55
271 552
271 56
271 57
271 58
271 589
271 63
271 64
271 698
271 717
271 737
271 738
271 80
271 809
271 859
271 86
271 88
271 89
271 949
272 273
272 274
272 290
272 3
272 309
272 310
272 322
272 334
272 409
272 422
272 428
272 429
272 446
272 447
272 448
272 45
272 46
272 461
272 462
272 5
272 513
272 546
272 563
272 579
272 584
272 592
272 6
272 612
272 617
272 63
272 651
272 665
272 710
272 812
272 84
273 274
273 301
273 322
273 4
273 428
273 429
273 447
273 448
273 45
273 46
273 461
273 579
273 592
273 812
273 819
273 83
273 886
274 334
274 335
274 340
274 405
274 424
274 428
274 429
274 448
274 45
274 46
274 549
274 592
274 678
274 86
275 276
275 368
275 413
275 426
275 434
275 440
275 450
275 458
275 479
275 493
275 511
275 515
275 526
275 542
275 562
275 6
275 60
275 65
275 789
275 813
275 835
275 840
275 86
276 295
276 301
276 401
276 426
276 549
276 560
276 568
277 280
277 284
277 289
277 296
277 342
277 377
277 515
277 621
277 82
277 971
278 28
278 280
278 284
278 292
278 301
278 342
278 343
278 345
278 347
278 351
278 363
278 365
278 377
278 405
278 409
278 420
278 486
278 493
278 495
278 548
278 611
278 621
278 63
278 681
278 722
278 789
278 82
278 83
278 908
279 333
279 5
279 62
279 82
28 282
28 283
28 29
28 30
28 301
28 303
28 306
28 31
28 32
28 329
28 33
28 333
28 338
28 339
28 34
28 340
28 35
28 351
28 36
28 362
28 363
28 365
28 367
28 37
28 371
28 375
28 38
28 39
28 40
28 405
28 409
28 41
28 419
28 420
28 424
28 434
28 438
28 44
28 46
28 473
28 486
28 51
28 533
28 545
28 588
28 590
28 62
28 63
28 655
28 721
28 722
28 80
28 81
28 811
28 82
28 820
28 86
28 87
28 877
28 892
28 896
28 914
28 93
28 932
28 952
28 953
28 96
280 282
280 283
280 284
280 289
280 290
280 291
280 292
280 294
280 296
280 303
280 333
280 336
280 340
280 342
280 351
280 362
280 363
280 367
280 373
280 377
280 388
280 405
280 409
280 41
280 419
280 42
280 420
280 424
280 426
280 430
280 434
280 440
280 450
280 458
280 464
280 47
280 473
280 483
280 486
280 493
280 494
280 51
280 515
280 523
280 526
280 53
280 533
280 543
280 556
280 572
280 574
280 575
280 60
280 61
280 62
280 64
280 65
280 655
280 706
280 734
280 81
280 813
280 82
280 820
280 822
280 83
280 86
280 87
280 909
280 922
280 93
280 95
281 285
281 286
281 3
281 301
281 303
281 305
281 333
281 4
281 408
281 411
281 412
281 424
281 481
281 494
281 5
281 520
281 54
281 552
281 56
281 564
281 57
281 571
281 58
281 59
281 6
281 615
281 62
281 63
281 64
281 683
281 685
281 698
281 718
281 738
281 82
281 845
281 859
281 880
281 932
281 949
281 990
282 283
282 288
282 290
282 300
282 31
282 311
282 318
282 33
282 333
282 340
282 35
282 355
282 356
282 357
282 366
282 371
282 372
282 373
282 375
282 393
282 4
282 401
282 404
282 405
282 41
282 411
282 420
282 424
282 427
282 434
282 441
282 45
282 464
282 474
282 478
282 480
282 493
282 494
282 509
282 518
282 531
282 533
282 546
282 559
282 560
282 572
282 577
282 58
282 586
282 588
282 589
282 596
282 597
282 612
282 62
282 64
282 641
282 65
282 662
282 665
282 68
282 687
282 69
282 690
282 726
282 74
282 745
282 747
282 77
282 79
282 80
282 812
282 82
282 820
282 83
282 84
282 856
282 87
282 880
282 932
283 288
283 290
283 295
283 296
283 3
283 300
283 303
283 308
283 314
283 318
283 320
283 321
283 329
283 333
283 351
283 355
283 356
283 362
283 363
283 365
283 366
283 367
283 368
283 371
283 372
283 373
283 376
283 377
283 378
283 379
283 380
283 387
283 388
283 389
283 390
283 392
283 393
283 394
283 395
283 4
283 405
283 411
283 420
283 424
283 426
283 434
283 44
283 453
283 46
283 492
283 493
283 494
283 495
283 5
283 51
283 518
283 548
283 559
283 560
283 577
283 58
283 589
283 594
283 60
283 601
283 61
283 62
283 63
283 693
283 726
283 748
283 752
283 758
283 81
283 82
283 820
283 83
283 86
283 87
283 932
284 292
284 296
284 301
284 342
284 351
284 377
284 472
284 5
284 511
284 6
284 621
284 642
284 681
284 734
284 749
284 936
284 971
285 286
285 301
285 302
285 303
285 304
285 305
285 366
285 371
285 379
285 4
285 401
285 408
285 411
285 412
285 420
285 425
285 426
285 457
285 458
285 481
285 486
285 5
285 520
285 532
285 533
285 54
285 55
285 552
285 562
285 57
285 571
285 58
285 586
285 59
285 6
285 62
285 625
285 63
285 635
285 65
285 683
285 685
285 698
285 738
285 774
285 806
285 809
285 812
285 82
285 83
285 840
285 854
285 86
285 88
285 89
285 921
285 949
285 96
285 990
286 3
286 303
286 305
286 329
286 4
286 408
286 410
286 411
286 412
286 481
286 486
286 5
286 520
286 532
286 56
286 57
286 571
286 58
286 59
286 6
286 63
286 635
286 685
286 738
286 80
286 815
286 859
286 880
287 298
287 299
287 418
287 494
287 509
287 536
287 549
287 68
287 69
287 80
287 800
287 81
287 82
287 896
287 92
288 295
288 296
288 333
288 371
288 405
288 431
288 432
288 433
288 434
288 506
288 549
288 550
288 571
288 58
288 613
288 654
288 70
288 71
288 756
288 758
288 83
288 84
289 401
289 425
289 482
29 30
29 301
29 31
29 32
29 33
29 331
29 339
29 34
29 35
29 36
29 361
29 37
29 38
29 39
29 40
29 409
29 417
29 420
29 438
29 443
29 455
29 459
29 473
29 486
29 5
29 51
29 533
29 545
29 554
29 560
29 588
29 590
29 62
29 93
29 964
29 971
290 291
290 294
290 295
290 301
290 329
290 340
290 356
290 357
290 366
290 405
290 419
290 424
290 426
290 434
290 437
290 484
290 493
290 494
290 495
290 515
290 526
290 531
290 533
290 546
290 563
290 567
290 568
290 572
290 584
290 6
290 62
290 620
290 64
290 643
290 65
290 694
290 706
290 79
290 82
290 822
290 829
290 83
290 843
290 86
290 87
290 892
290 936
290 99
291 294
291 346
291 403
291 420
291 450
291 458
291 464
291 493
291 5
291 542
291 543
291 65
291 93
292 295
292 377
292 389
292 409
292 426
292 450
292 484
292 486
292 493
292 515
292 523
292 543
292 611
292 62
292 64
292 82
292 822
292 83
292 950
292 953
293 360
293 362
293 365
293 374
293 420
293 44
293 498
293 504
293 506
293 525
293 530
293 661
293 754
293 765
293 8
293 856
294 301
294 342
294 346
294 377
294 401
294 425
294 457
294 493
294 526
294 543
294 572
294 65
294 931
294 94
295 296
295 308
295 311
295 313
295 314
295 317
295 320
295 321
295 331
295 341
295 368
295 376
295 377
295 378
295 379
295 380
295 381
295 382
295 383
295 384
295 385
295 386
295 387
295 388
295 389
295 390
295 391
295 392
295 393
295 394
295 395
295 396
295 397
295 398
295 424
295 434
295 450
295 459
295 471
295 472
295 486
295 490
295 521
295 560
295 576
295 585
295 60
295 61
295 62
295 628
295 717
295 82
295 84
295 86
295 932
295 943
295 947
296 320
296 321
296 342
296 351
296 363
296 376
296 377
296 378
296 379
296 380
296 385
296 387
296 388
296 389
296 390
296 392
296 393
296 395
296 397
296 405
296 419
296 42
296 420
296 434
296 473
296 494
296 495
296 526
296 549
296 6
296 60
296 607
296 61
296 610
296 62
296 644
296 719
296 810
296 82
296 83
296 87
296 932
297 309
297 311
297 316
297 341
297 49
297 696
297 73
297 74
297 86
297 905
298 299
298 301
298 42
298 473
298 507
298 536
298 549
298 551
298 685
298 812
299 418
299 473
299 508
299 509
299 546
299 549
299 551
299 590
299 6
299 69
299 700
299 710
299 80
299 81
299 855
299 968
3 303
3 323
3 371
3 4
3 405
3 408
3 411
3 412
3 434
3 46
3 473
3 481
3 520
3 55
3 56
3 57
3 571
3 58
3 587
3 59
3 599
3 6
3 601
3 62
3 63
3 665
3 685
3 81
3 812
3 832
3 845
3 859
3 880
3 886
3 89
3 932
3 971
3 990
30 31
30 32
30 33
30 336
30 337
30 339
30 34
30 35
30 36
30 366
30 367
30 37
30 38
30 39
30 40
30 409
30 41
30 417
30 420
30 424
30 434
30 437
30 438
30 44
30 473
30 51
30 545
30 546
30 588
30 590
30 609
30 62
30 721
30 764
30 82
30 820
30 84
30 86
30 93
300 303
300 312
300 314
300 323
300 329
300 355
300 367
300 371
300 405
300 419
300 42
300 434
300 44
300 444
300 45
300 46
300 460
300 475
300 489
300 495
300 531
300 62
300 638
300 64
300 642
300 662
300 68
300 739
300 748
300 81
300 828
300 87
300 889
300 892
300 896
300 97
301 303
301 307
301 311
301 312
301 314
301 321
301 327
301 337
301 340
301 35
301 356
301 357
301 36
301 362
301 368
301 375
301 393
301 4
301 404
301 420
301 423
301 428
301 429
301 444
301 445
301 446
301 45
301 453
301 473
301 474
301 482
301 502
301 504
301 511
301 52
301 581
301 596
301 597
301 61
301 621
301 624
301 63
301 641
301 651
301 655
301 68
301 686
301 690
301 730
301 747
301 8
301 809
301 81
301 810
301 818
301 820
301 856
301 857
301 89
301 926
301 93
301 930
301 931
301 953
301 963
302 303
302 304
302 333
302 419
302 438
302 455
302 5
302 533
302 57
302 64
302 809
302 88
302 89
302 96
303 304
303 329
303 340
303 351
303 355
303 356
303 362
303 363
303 365
303 367
303 369
303 371
303 4
303 405
303 411
303 412
303 423
303 424
303 434
303 46
303 486
303 5
303 513
303 520
303 533
303 544
303 551
303 56
303 564
303 57
303 571
303 58
303 59
303 610
303 619
303 62
303 63
303 630
303 665
303 738
303 80
303 807
303 81
303 82
303 845
303 859
303 87
303 88
303 89
303 896
303 909
303 924
303 932
303 950
303 96
304 369
304 405
304 411
304 420
304 424
304 455
304 54
304 564
304 57
304 58
304 599
304 806
304 809
304 82
304 86
304 87
304 88
304 89
304 96
304 971
305 366
305 4
305 408
305 409
305 411
305 412
305 420
305 481
305 483
305 489
305 494
305 5
305 516
305 517
305 520
305 528
305 54
305 55
305 552
305 56
305 57
305 58
305 59
305 6
305 604
305 63
305 64
305 683
305 685
305 698
305 718
305 738
305 809
305 815
305 84
305 845
305 865
305 880
305 89
305 949
305 990
306 325
306 326
306 327
306 329
306 366
306 373
306 400
306 409
306 426
306 434
306 478
306 5
306 509
306 51
306 511
306 533
306 538
306 549
306 550
306 612
306 62
306 64
306 68
306 69
306 723
306 728
306 733
306 81
306 825
306 858
306 86
306 91
306 93
307 310
307 314
307 317
307 347
307 376
307 537
307 588
307 65
307 696
307 74
307 85
307 872
307 971
308 320
308 376
308 379
308 390
308 393
308 396
308 405
308 411
308 424
308 430
308 434
308 438
308 462
308 494
308 5
308 532
308 581
308 6
308 74
308 83
308 880
309 310
309 311
309 312
309 313
309 314
309 316
309 317
309 341
309 400
309 42
309 495
309 5
309 511
309 549
309 612
309 615
309 64
309 73
309 74
309 85
309 872
309 905
309 95
31 32
31 33
31 337
31 338
31 34
31 35
31 36
31 361
31 367
31 37
31 38
31 39
31 40
31 424
31 427
31 438
31 51
31 612
31 82
31 84
31 86
31 932
31 96
310 313
310 314
310 317
310 340
310 365
310 366
310 445
310 494
310 533
310 581
310 62
310 74
310 78
310 82
310 85
310 86
310 932
311 312
311 341
311 366
311 373
311 420
311 424
311 459
311 494
311 612
311 678
311 69
311 72
311 73
311 74
311 756
311 905
312 314
312 317
312 366
312 377
312 420
312 494
312 5
312 53
312 62
312 74
312 841
312 85
313 317
313 560
313 623
313 73
313 74
313 85
314 317
314 340
314 363
314 365
314 405
314 418
314 420
314 434
314 495
314 507
314 52
314 62
314 726
314 74
314 764
314 82
314 85
314 872
314 892
315 495
315 519
315 537
315 695
316 341
316 377
316 379
316 409
316 420
316 424
316 435
316 459
316 465
316 468
316 495
316 519
316 537
316 549
316 560
316 6
316 629
316 690
316 695
316 726
316 73
316 74
316 758
316 793
316 905
316 979
317 366
317 389
317 485
317 695
317 73
317 74
317 84
317 85
318 326
318 333
318 338
318 36
318 361
318 367
318 370
318 375
318 40
318 409
318 411
318 417
318 420
318 423
318 424
318 426
318 442
318 443
318 444
318 455
318 47
318 48
318 482
318 485
318 486
318 494
318 5
318 527
318 547
318 615
318 64
318 725
318 76
318 82
318 83
318 84
318 86
318 925
318 96
318 976
318 981
319 963
32 33
32 338
32 339
32 34
32 35
32 361
32 367
32 37
32 372
32 40
32 417
32 438
32 473
32 533
32 590
32 654
32 883
32 93
320 321
320 333
320 349
320 350
320 351
320 368
320 376
320 377
320 379
320 380
320 381
320 389
320 390
320 391
320 393
320 394
320 396
320 397
320 434
320 440
320 483
320 533
320 593
320 60
320 61
320 616
320 628
320 65
320 734
320 868
320 94
320 947
321 349
321 351
321 368
321 376
321 377
321 378
321 379
321 38
321 380
321 381
321 384
321 385
321 387
321 388
321 389
321 390
321 391
321 392
321 393
321 394
321 395
321 396
321 397
321 440
321 483
321 533
321 546
321 560
321 579
321 592
321 60
321 61
321 697
321 810
321 904
321 947
321 971
322 334
322 335
322 428
322 429
322 434
322 446
322 447
322 448
322 45
322 46
322 461
322 533
322 592
322 676
322 735
322 794
322 929
322 933
323 353
323 354
323 371
323 4
323 404
323 411
323 447
323 5
323 533
323 6
323 618
323 64
323 640
323 654
323 662
323 708
323 768
323 84
323 97
323 98
323 99
324 43
324 44
324 441
324 466
324 555
324 558
324 565
324 63
324 65
324 666
324 7
324 720
324 754
324 971
325 326
325 327
325 340
325 400
325 409
325 420
325 478
325 5
325 508
325 509
325 549
325 64
325 65
325 69
325 82
325 87
325 945
325 96
325 962
325 971
326 327
326 389
326 409
326 420
326 424
326 473
326 533
326 538
326 543
326 549
326 64
326 733
326 82
326 84
326 86
326 87
326 92
326 923
326 932
326 96
327 328
327 400
327 416
327 473
327 486
327 5
327 6
327 728
327 733
327 82
327 820
327 894
327 945
327 96
328 329
328 331
328 357
328 375
328 459
328 460
328 474
328 478
328 494
328 514
328 560
328 66
328 86
328 90
328 91
329 333
329 340
329 351
329 355
329 356
329 357
329 363
329 365
329 367
329 371
329 375
329 38
329 4
329 405
329 410
329 419
329 42
329 424
329 434
329 450
329 459
329 46
329 469
329 473
329 474
329 476
329 477
329 478
329 480
329 486
329 495
329 514
329 560
329 568
329 576
329 62
329 63
329 638
329 64
329 652
329 66
329 671
329 68
329 69
329 80
329 81
329 82
329 83
329 87
329 896
329 90
329 91
329 96
329 989
33 339
33 34
33 35
33 37
33 370
33 38
33 39
33 40
33 409
33 438
33 443
33 590
33 615
33 86
33 878
330 438
330 455
330 556
330 64
330 73
330 74
330 860
331 340
331 358
331 362
331 44
331 459
331 464
331 482
331 615
331 707
331 73
331 74
331 764
331 856
332 358
332 359
332 406
332 407
332 421
332 44
332 487
332 498
332 499
332 500
332 502
332 504
332 505
332 506
332 523
332 525
332 529
332 608
332 699
332 7
332 700
332 707
332 720
332 836
332 9
332 971
333 340
333 355
333 36
333 361
333 366
333 367
333 370
333 393
333 404
333 405
333 41
333 411
333 417
333 419
333 42
333 421
333 422
333 423
333 427
333 434
333 438
333 441
333 442
333 443
333 444
333 455
333 460
333 47
333 471
333 473
333 474
333 48
333 485
333 486
333 492
333 493
333 5
333 516
333 517
333 518
333 527
333 531
333 533
333 546
333 547
333 577
333 58
333 601
333 609
333 615
333 62
333 627
333 641
333 652
333 654
333 736
333 76
333 77
333 81
333 82
333 820
333 83
333 84
333 847
333 87
333 89
333 895
333 919
333 925
333 932
333 950
333 96
333 976
333 981
333 983
333 984
334 335
334 429
334 446
334 447
334 448
334 46
334 579
334 592
334 65
334 929
334 933
335 428
335 429
335 446
335 447
335 448
335 45
335 461
335 533
335 579
335 592
335 760
335 794
335 929
335 933
335 97
336 337
336 338
336 339
336 400
336 409
336 41
336 419
336 437
336 438
336 485
336 560
336 816
336 820
336 84
336 860
336 883
336 92
336 93
336 96
336 971
337 338
337 339
337 367
337 419
337 420
337 424
337 437
337 438
337 464
337 5
337 511
337 548
337 6
337 82
337 860
337 883
337 93
337 96
338 339
338 35
338 365
338 367
338 37
338 409
338 411
338 420
338 424
338 434
338 437
338 438
338 439
338 455
338 464
338 48
338 485
338 564
338 62
338 638
338 66
338 724
338 82
338 84
338 860
338 900
338 914
338 932
338 96
338 987
339 34
339 340
339 35
339 361
339 370
339 38
339 39
339 40
339 417
339 427
339 437
339 438
339 443
339 455
339 464
339 47
339 482
339 547
339 725
339 75
339 79
339 818
339 860
339 883
339 96
339 987
34 35
34 36
34 361
34 37
34 38
34 39
34 40
34 434
34 438
34 5
34 54
34 545
34 588
34 590
340 342
340 367
340 371
340 375
340 405
340 419
340 420
340 424
340 434
340 438
340 445
340 450
340 459
340 46
340 464
340 473
340 474
340 482
340 483
340 491
340 494
340 497
340 513
340 521
340 531
340 535
340 546
340 547
340 548
340 553
340 554
340 564
340 593
340 598
340 612
340 62
340 638
340 654
340 74
340 766
340 777
340 78
340 79
340 80
340 811
340 82
340 83
340 848
340 86
340 867
340 892
340 922
340 932
340 934
340 96
341 389
341 560
341 74
342 343
342 345
342 346
342 348
342 349
342 350
342 351
342 352
342 376
342 377
342 381
342 393
342 41
342 450
342 468
342 483
342 493
342 495
342 511
342 533
342 575
342 593
342 60
342 62
342 621
342 681
342 726
342 776
342 797
342 820
342 851
342 907
342 94
342 95
343 345
343 350
343 42
343 681
343 820
343 971
344 349
344 377
344 381
344 656
344 814
345 346
345 350
345 351
345 352
345 483
345 61
345 681
345 82
346 351
346 352
346 409
346 5
346 51
346 511
346 6
346 820
347 349
347 352
347 377
347 460
347 61
347 612
347 681
347 814
348 349
349 402
349 5
349 6
349 64
349 644
349 907
35 36
35 367
35 37
35 38
35 39
35 40
35 409
35 434
35 438
35 442
35 455
35 464
35 473
35 486
35 5
35 51
35 533
35 588
35 590
35 62
35 655
35 86
35 878
35 953
350 351
350 352
350 377
350 533
350 572
350 593
350 681
350 822
350 851
350 861
350 936
350 939
350 94
351 352
351 363
351 364
351 365
351 371
351 377
351 419
351 420
351 483
351 495
351 5
351 518
351 575
351 734
351 81
351 87
351 94
351 95
352 377
352 41
352 483
352 546
352 60
352 65
352 656
352 681
352 789
352 851
353 354
353 365
353 371
353 404
353 434
353 486
353 592
353 618
353 640
353 662
353 687
353 69
353 708
353 709
353 768
353 770
353 796
353 82
353 828
353 86
353 87
353 935
353 937
353 97
353 98
353 99
354 404
354 64
354 97
355 356
355 365
355 371
355 405
355 420
355 424
355 46
355 472
355 473
355 513
355 518
355 546
355 62
355 63
355 638
355 654
355 82
355 83
355 856
355 896
355 932
356 357
356 362
356 366
356 375
356 405
356 410
356 419
356 424
356 434
356 474
356 478
356 480
356 486
356 490
356 509
356 549
356 564
356 612
356 62
356 638
356 671
356 69
356 80
356 81
356 82
356 828
356 896
356 91
357 375
357 404
357 409
357 424
357 454
357 474
357 478
357 480
357 486
357 5
357 568
357 589
357 615
357 62
357 64
357 65
357 671
357 68
357 80
357 81
357 82
357 91
358 374
358 406
358 407
358 43
358 44
358 452
358 459
358 466
358 498
358 499
358 500
358 501
358 502
358 503
358 504
358 505
358 506
358 510
358 525
358 530
358 560
358 566
358 569
358 573
358 602
358 608
358 65
358 699
358 7
358 700
358 707
358 729
358 73
358 765
358 8
358 805
358 823
358 856
358 9
358 913
359 360
359 421
359 44
359 452
359 466
359 496
359 498
359 499
359 502
359 504
359 525
359 529
359 533
359 558
359 569
359 570
359 608
359 672
359 699
359 7
359 700
359 707
359 754
359 9
359 951
36 367
36 37
36 409
36 438
36 442
36 48
36 486
36 545
36 588
36 75
36 82
36 86
36 914
36 93
360 371
360 4
360 430
360 44
360 441
360 451
360 452
360 495
360 498
360 533
360 549
360 569
360 570
360 7
360 754
360 951
360 971
361 367
361 370
361 40
361 417
361 423
361 434
361 437
361 438
361 443
361 444
361 455
361 47
361 48
361 533
361 547
361 560
361 62
361 93
361 96
361 971
361 976
361 981
362 365
362 401
362 405
362 420
362 421
362 430
362 434
362 44
362 441
362 459
362 466
362 473
362 480
362 483
362 486
362 488
362 496
362 498
362 5
362 506
362 51
362 518
362 529
362 533
362 546
362 549
362 560
362 569
362 6
362 602
362 62
362 65
362 661
362 666
362 69
362 7
362 81
362 82
362 820
362 856
362 86
362 956
363 364
363 365
363 367
363 371
363 384
363 420
363 422
363 434
363 495
363 508
363 518
363 531
363 560
363 577
363 63
363 661
363 664
363 81
363 87
364 433
365 371
365 377
365 401
365 405
365 419
365 421
365 430
365 434
365 438
365 44
365 440
365 451
365 486
365 489
365 490
365 495
365 506
365 513
365 530
365 531
365 548
365 564
365 569
365 589
365 602
365 607
365 62
365 63
365 672
365 695
365 7
365 765
365 802
365 81
365 82
365 820
365 83
365 833
365 87
366 367
366 368
366 372
366 387
366 404
366 424
366 44
366 440
366 441
366 443
366 445
366 474
366 494
366 506
366 512
366 518
366 521
366 531
366 537
366 577
366 58
366 596
366 62
366 63
366 65
366 662
366 68
366 690
366 693
366 74
366 747
366 758
366 78
366 812
366 82
366 820
366 83
366 84
366 856
366 859
366 86
366 886
366 950
367 375
367 39
367 405
367 417
367 419
367 420
367 424
367 427
367 434
367 438
367 44
367 470
367 473
367 48
367 486
367 495
367 531
367 546
367 62
367 64
367 655
367 666
367 748
367 75
367 757
367 80
367 81
367 82
367 892
367 93
367 932
367 96
367 980
368 375
368 376
368 377
368 379
368 387
368 390
368 391
368 392
368 393
368 394
368 395
368 397
368 434
368 440
368 52
368 537
368 60
368 61
368 82
368 83
368 841
368 86
368 896
369 630
369 88
369 89
369 96
37 370
37 38
37 39
37 40
37 48
37 545
37 588
37 590
37 655
37 667
37 721
37 84
37 86
37 96
370 38
370 39
370 40
370 41
370 414
370 417
370 423
370 427
370 442
370 443
370 455
370 47
370 48
370 547
370 725
370 85
370 92
370 96
371 404
371 405
371 409
371 419
371 424
371 434
371 45
371 46
371 473
371 490
371 494
371 495
371 51
371 518
371 533
371 548
371 549
371 58
371 62
371 63
371 640
371 641
371 65
371 662
371 708
371 768
371 81
371 82
371 828
371 87
371 932
371 97
371 98
371 99
372 373
372 404
372 42
372 431
372 433
372 48
372 494
372 513
372 58
372 594
372 62
372 64
372 70
372 75
372 82
372 83
372 84
372 86
372 87
373 404
373 411
373 420
373 481
373 508
373 515
373 528
373 552
373 563
373 571
373 58
373 706
373 714
373 812
373 82
373 83
373 84
373 86
373 92
373 93
373 964
374 406
374 407
374 44
374 441
374 466
374 499
374 5
374 500
374 501
374 502
374 503
374 504
374 505
374 506
374 529
374 7
374 856
375 405
375 411
375 424
375 455
375 469
375 474
375 475
375 476
375 477
375 478
375 480
375 494
375 5
375 51
375 514
375 577
375 6
375 62
375 64
375 66
375 663
375 671
375 679
375 756
375 80
375 81
375 860
375 889
375 89
375 896
375 90
375 91
375 96
376 377
376 378
376 379
376 380
376 385
376 387
376 388
376 389
376 390
376 391
376 392
376 393
376 394
376 395
376 397
376 6
376 60
376 61
376 632
376 64
376 654
376 719
376 82
376 841
376 869
376 985
377 378
377 379
377 380
377 381
377 382
377 383
377 384
377 385
377 386
377 387
377 388
377 389
377 390
377 391
377 392
377 393
377 394
377 395
377 396
377 397
377 398
377 402
377 403
377 450
377 458
377 464
377 468
377 483
377 486
377 490
377 491
377 494
377 495
377 52
377 526
377 546
377 548
377 562
377 572
377 575
377 577
377 593
377 6
377 60
377 61
377 62
377 621
377 65
377 656
377 659
377 734
377 741
377 745
377 748
377 764
377 776
377 782
377 82
377 839
377 851
377 86
377 872
377 907
377 918
377 94
377 947
377 95
377 959
377 960
377 961
378 379
378 385
378 387
378 388
378 390
378 393
378 397
378 491
378 60
378 61
379 380
379 381
379 382
379 383
379 384
379 385
379 386
379 387
379 388
379 389
379 390
379 391
379 392
379 393
379 394
379 395
379 396
379 397
379 398
379 5
379 6
379 60
379 61
379 628
379 63
379 64
379 719
379 80
38 39
38 40
38 409
38 417
38 421
38 437
38 438
38 443
38 47
38 474
38 48
38 547
38 579
38 590
38 592
38 722
38 847
38 86
38 915
380 381
380 385
380 387
380 390
380 391
380 393
380 396
380 397
380 440
380 53
380 537
380 539
380 562
380 60
380 61
380 65
380 656
380 680
381 387
381 390
381 391
381 393
381 394
381 397
381 479
381 515
381 548
381 60
381 61
381 686
381 948
382 393
384 387
384 388
384 390
384 393
384 495
384 60
384 80
385 387
385 389
385 390
385 393
385 394
385 395
385 60
385 82
386 393
386 560
387 388
387 389
387 390
387 392
387 393
387 394
387 395
387 41
387 42
387 485
387 523
387 60
387 61
387 667
387 849
387 950
388 390
388 393
388 394
388 60
388 61
389 390
389 391
389 393
389 394
389 395
389 397
389 486
389 521
389 53
389 537
389 585
389 6
389 60
389 61
389 611
389 628
389 64
389 66
39 40
39 409
39 437
39 455
39 48
39 480
39 494
39 560
39 84
39 86
39 883
39 93
390 391
390 392
390 393
390 394
390 395
390 396
390 397
390 409
390 438
390 459
390 491
390 526
390 60
390 61
390 62
390 756
391 393
391 426
391 60
391 61
391 776
391 971
392 393
392 528
392 588
392 60
392 61
392 86
393 394
393 395
393 396
393 397
393 421
393 422
393 424
393 433
393 434
393 473
393 533
393 546
393 60
393 607
393 61
393 612
393 615
393 62
393 643
393 71
393 719
393 761
393 810
393 82
393 83
393 84
393 86
393 87
393 932
393 947
393 950
394 397
394 486
394 53
394 537
394 60
394 61
394 628
394 947
395 396
395 424
395 494
395 557
395 60
395 61
395 64
395 719
395 80
395 82
395 83
395 86
395 908
396 60
396 61
397 458
397 52
397 53
397 537
397 546
397 6
397 60
397 632
397 64
397 719
397 841
397 869
399 401
399 440
399 450
399 457
399 493
399 51
399 526
399 542
399 543
399 813
399 84
399 93
4 405
4 408
4 411
4 412
4 424
4 425
4 430
4 431
4 434
4 481
4 520
4 532
4 533
4 54
4 55
4 552
4 56
4 564
4 57
4 571
4 58
4 586
4 587
4 59
4 6
4 612
4 62
4 625
4 63
4 635
4 665
4 685
4 698
4 712
4 738
4 803
4 809
4 81
4 812
4 82
4 826
4 832
4 845
4 859
4 880
4 89
4 896
4 96
4 971
4 990
40 409
40 417
40 427
40 438
40 442
40 443
40 448
40 47
40 48
40 533
40 545
40 547
40 560
40 590
40 725
40 75
40 753
40 816
40 847
40 900
40 917
40 919
40 93
40 953
40 964
400 411
400 509
400 560
400 589
400 64
400 678
400 68
400 69
400 690
400 728
400 74
400 81
400 86
400 92
400 96
400 971
401 424
401 425
401 426
401 430
401 434
401 44
401 457
401 493
401 526
401 533
401 542
401 543
401 562
401 568
401 574
401 600
401 621
401 65
401 664
401 705
401 712
401 714
401 791
401 82
401 835
401 870
401 873
401 874
401 971
402 420
403 425
403 426
403 473
403 493
403 526
403 53
403 537
403 542
403 813
403 971
404 412
404 420
404 421
404 422
404 424
404 434
404 45
404 473
404 474
404 494
404 518
404 532
404 533
404 546
404 58
404 586
404 601
404 612
404 615
404 618
404 62
404 640
404 643
404 654
404 662
404 687
404 708
404 709
404 768
404 82
404 83
404 84
404 86
404 87
404 896
404 932
404 937
404 950
404 963
404 97
404 98
404 99
405 411
405 419
405 42
405 424
405 433
405 434
405 438
405 44
405 45
405 456
405 46
405 480
405 489
405 490
405 493
405 495
405 498
405 5
405 518
405 519
405 531
405 537
405 541
405 543
405 548
405 601
405 62
405 63
405 64
405 642
405 695
405 748
405 758
405 773
405 78
405 796
405 81
405 828
405 83
405 856
405 87
405 889
405 89
405 891
405 892
405 896
406 407
406 43
406 44
406 466
406 498
406 499
406 500
406 501
406 502
406 503
406 504
406 505
406 506
406 525
406 533
406 608
406 672
406 699
406 7
406 720
406 9
406 971
407 43
407 44
407 466
407 494
407 498
407 499
407 502
407 503
407 504
407 505
407 506
407 525
407 526
407 566
407 7
407 786
407 856
407 93
408 411
408 412
408 420
408 434
408 462
408 473
408 489
408 5
408 516
408 517
408 520
408 533
408 552
408 56
408 57
408 571
408 58
408 586
408 587
408 59
408 6
408 625
408 63
408 685
408 826
408 832
408 845
408 859
408 880
408 89
408 96
408 990
408 993
409 417
409 418
409 420
409 421
409 428
409 443
409 447
409 448
409 450
409 457
409 464
409 47
409 474
409 497
409 504
409 506
409 51
409 515
409 555
409 581
409 590
409 624
409 65
409 667
409 69
409 710
409 776
409 785
409 800
409 81
409 90
409 93
409 945
41 42
41 434
41 443
41 460
41 464
41 47
41 474
41 482
41 483
41 493
41 5
41 51
41 546
41 581
41 593
41 601
41 612
41 62
41 63
41 751
41 776
41 801
41 82
41 820
41 83
41 85
41 86
41 87
41 908
41 917
41 918
41 93
41 932
41 94
41 95
410 486
410 490
410 62
410 82
411 412
411 430
411 434
411 438
411 455
411 460
411 462
411 469
411 473
411 481
411 498
411 5
411 506
411 511
411 516
411 517
411 537
411 54
411 55
411 552
411 57
411 58
411 597
411 6
411 604
411 63
411 64
411 646
411 665
411 671
411 683
411 698
411 717
411 728
411 738
411 784
411 809
411 816
411 84
411 859
411 864
411 866
411 867
411 88
411 89
411 900
411 949
411 96
411 976
411 981
411 986
411 987
411 988
412 434
412 473
412 481
412 520
412 54
412 55
412 552
412 56
412 57
412 58
412 586
412 587
412 59
412 6
412 615
412 625
412 63
412 64
412 665
412 683
412 685
412 698
412 738
412 803
412 809
412 81
412 812
412 820
412 826
412 832
412 845
412 859
412 865
412 87
412 884
412 888
412 89
412 921
412 971
412 991
413 426
413 440
413 450
413 458
413 493
413 515
413 526
413 542
413 562
413 65
413 714
413 813
413 840
413 93
414 415
414 443
414 449
414 479
414 603
414 605
414 645
414 697
414 916
415 697
415 852
415 86
416 971
417 423
417 434
417 437
417 438
417 442
417 443
417 444
417 455
417 47
417 48
417 485
417 486
417 494
417 5
417 547
417 62
417 64
417 725
417 76
417 79
417 795
417 847
417 86
417 895
417 925
417 93
417 96
417 971
417 976
417 981
418 467
418 473
418 480
418 508
418 509
418 549
418 582
418 6
418 62
418 68
418 69
418 710
418 747
418 81
419 434
419 44
419 445
419 45
419 450
419 460
419 462
419 468
419 473
419 474
419 482
419 489
419 490
419 493
419 495
419 497
419 5
419 526
419 531
419 542
419 554
419 591
419 607
419 611
419 62
419 63
419 64
419 642
419 652
419 655
419 68
419 714
419 74
419 777
419 78
419 789
419 79
419 81
419 82
419 828
419 84
419 848
419 87
419 91
419 932
42 422
42 427
42 434
42 44
42 453
42 459
42 473
42 474
42 490
42 492
42 493
42 495
42 5
42 560
42 58
42 607
42 612
42 64
42 642
42 667
42 671
42 74
42 756
42 81
42 820
42 83
42 86
42 87
420 430
420 434
420 450
420 452
420 453
420 458
420 464
420 474
420 490
420 494
420 5
420 509
420 511
420 520
420 526
420 53
420 531
420 541
420 568
420 581
420 60
420 607
420 610
420 624
420 627
420 63
420 64
420 641
420 647
420 651
420 654
420 661
420 666
420 669
420 68
420 69
420 7
420 733
420 78
420 783
420 79
420 81
420 810
420 82
420 820
420 83
420 854
420 932
420 99
421 430
421 434
421 448
421 452
421 457
421 459
421 460
421 466
421 471
421 473
421 481
421 487
421 488
421 496
421 498
421 504
421 525
421 529
421 566
421 607
421 61
421 649
421 7
421 765
421 820
421 856
421 86
421 9
422 424
422 427
422 473
422 474
422 493
422 513
422 518
422 533
422 546
422 58
422 601
422 615
422 7
422 819
422 82
422 820
422 84
422 87
422 950
423 426
423 438
423 442
423 443
423 444
423 455
423 47
423 48
423 482
423 485
423 5
423 527
423 547
423 62
423 76
423 847
423 89
423 892
423 925
423 96
423 971
423 976
423 981
424 429
424 434
424 44
424 445
424 448
424 45
424 46
424 462
424 464
424 474
424 478
424 483
424 493
424 495
424 497
424 509
424 518
424 526
424 527
424 543
424 552
424 58
424 589
424 612
424 62
424 641
424 68
424 69
424 695
424 738
424 74
424 747
424 748
424 758
424 78
424 783
424 80
424 81
424 82
424 820
424 83
424 86
424 87
424 880
424 93
424 950
424 99
425 426
425 430
425 457
425 493
425 513
425 526
425 543
425 562
425 567
425 568
425 574
425 621
425 65
425 664
425 705
425 714
425 791
425 835
425 84
425 86
425 870
425 873
425 874
425 90
426 440
426 450
426 457
426 458
426 486
426 493
426 518
426 526
426 562
426 568
426 572
426 6
426 62
426 621
426 65
426 714
426 82
426 840
426 86
426 87
426 92
426 93
426 956
427 431
427 434
427 438
427 443
427 460
427 47
427 470
427 473
427 474
427 48
427 546
427 612
427 615
427 62
427 651
427 655
427 75
427 82
427 86
427 87
427 932
427 950
427 96
427 980
428 429
428 446
428 447
428 448
428 45
428 46
428 461
428 579
428 592
428 651
428 676
428 812
429 446
429 447
429 448
429 45
429 46
429 461
429 579
429 592
429 6
429 929
429 933
43 44
43 452
43 498
43 499
43 502
43 505
43 566
43 569
430 44
430 441
430 462
430 486
430 498
430 5
430 501
430 504
430 506
430 533
430 543
430 565
430 569
430 6
430 62
430 64
430 65
430 672
430 674
430 7
430 765
430 8
430 83
430 856
430 86
430 956
430 971
431 433
431 434
431 50
431 58
431 70
431 71
431 756
431 80
431 83
431 84
432 433
432 71
432 84
433 434
433 49
433 50
433 70
433 71
433 83
433 84
434 44
434 440
434 441
434 450
434 458
434 459
434 46
434 460
434 467
434 471
434 473
434 474
434 478
434 489
434 490
434 493
434 495
434 506
434 509
434 515
434 518
434 53
434 531
434 533
434 544
434 548
434 550
434 551
434 572
434 58
434 589
434 593
434 607
434 61
434 612
434 62
434 63
434 64
434 647
434 65
434 651
434 677
434 69
434 768
434 81
434 812
434 813
434 820
434 828
434 83
434 856
434 859
434 87
434 89
434 92
434 97
434 99
435 440
435 519
435 533
435 616
435 647
435 65
435 793
435 920
435 942
436 437
436 438
437 438
437 443
437 455
437 47
437 48
437 482
437 5
437 531
437 547
437 75
437 816
437 847
437 860
437 89
437 900
437 96
438 440
438 444
438 450
438 455
438 470
438 482
438 494
438 5
438 531
438 54
438 545
438 562
438 588
438 590
438 6
438 64
438 655
438 74
438 82
438 86
438 860
438 87
438 89
438 892
438 900
438 93
438 96
438 987
439 96
44 441
44 459
44 473
44 486
44 498
44 499
44 500
44 501
44 502
44 503
44 504
44 506
44 51
44 525
44 526
44 529
44 533
44 546
44 549
44 550
44 555
44 565
44 569
44 573
44 62
44 63
44 638
44 649
44 661
44 672
44 699
44 7
44 729
44 754
44 765
44 8
44 805
44 81
44 82
44 820
44 83
44 833
44 856
44 86
44 892
44 9
44 913
44 932
44 951
44 956
44 967
440 447
440 450
440 457
440 458
440 460
440 493
440 497
440 498
440 499
440 5
440 515
440 526
440 53
440 533
440 534
440 542
440 562
440 6
440 608
440 61
440 629
440 64
440 65
440 661
440 733
440 813
440 818
440 840
440 94
440 970
441 466
441 473
441 498
441 504
441 506
441 529
441 533
441 546
441 566
441 569
441 573
441 602
441 608
441 62
441 649
441 661
441 666
441 699
441 700
441 707
441 720
441 729
441 754
441 8
441 82
441 84
441 86
441 87
442 443
442 444
442 455
442 478
442 48
442 485
442 545
442 84
442 96
442 976
442 981
443 444
443 455
443 47
443 48
443 485
443 527
443 547
443 590
443 725
443 76
443 820
443 84
443 847
443 85
443 919
443 925
443 93
443 96
443 976
443 981
444 455
444 464
444 47
444 48
444 485
444 527
444 547
444 76
444 84
444 847
444 86
444 96
444 971
444 976
444 981
445 45
445 5
445 51
445 518
445 531
445 557
445 581
445 62
445 64
445 77
445 79
445 82
445 820
445 848
445 86
445 917
446 447
446 448
446 45
446 46
446 461
446 498
446 579
446 592
446 933
447 448
447 45
447 46
447 461
447 473
447 498
447 579
447 592
447 62
447 676
447 690
447 799
447 812
447 933
448 45
448 46
448 461
448 484
448 494
448 579
448 592
448 617
448 62
448 735
448 812
448 847
448 87
448 933
448 971
45 46
45 461
45 533
45 62
45 640
45 812
45 828
45 838
45 87
45 892
45 932
45 933
450 458
450 464
450 482
450 493
450 494
450 5
450 515
450 526
450 534
450 542
450 543
450 544
450 568
450 581
450 600
450 611
450 62
450 623
450 64
450 65
450 705
450 714
450 813
450 82
450 83
450 86
450 93
450 932
450 95
451 452
451 466
451 487
451 496
451 558
451 566
451 569
451 7
452 466
452 487
452 498
452 499
452 501
452 502
452 506
452 529
452 566
452 569
452 570
452 573
452 608
452 649
452 661
452 666
452 7
452 700
452 8
452 823
452 830
452 856
452 9
452 971
453 459
453 472
453 491
453 546
453 607
453 615
453 62
453 654
453 745
453 82
453 83
453 84
453 86
453 87
453 932
454 62
454 82
454 84
455 464
455 47
455 470
455 48
455 485
455 5
455 547
455 58
455 64
455 76
455 816
455 847
455 860
455 89
455 900
455 914
455 919
455 925
455 96
455 976
455 981
456 64
457 493
457 523
457 526
457 533
457 562
457 568
457 62
457 65
457 840
457 86
457 92
457 971
458 486
458 493
458 494
458 5
458 515
458 526
458 533
458 542
458 543
458 568
458 6
458 600
458 604
458 62
458 623
458 64
458 647
458 655
458 714
458 789
458 813
458 82
458 83
458 86
458 93
459 464
459 467
459 473
459 490
459 495
459 496
459 498
459 513
459 519
459 537
459 548
459 549
459 560
459 565
459 589
459 610
459 615
459 616
459 62
459 661
459 695
459 717
459 74
459 756
459 759
459 80
459 86
459 87
459 90
46 461
46 473
46 495
46 533
46 548
46 579
46 592
46 63
46 638
46 748
46 81
46 812
46 82
46 828
46 83
46 932
46 933
46 96
460 462
460 467
460 473
460 490
460 493
460 495
460 518
460 533
460 537
460 549
460 57
460 597
460 607
460 615
460 663
460 679
460 730
460 74
460 748
460 80
460 81
461 533
461 592
461 624
461 735
461 812
461 819
462 463
462 5
462 506
462 513
462 545
462 546
462 561
462 58
462 586
462 701
462 82
464 483
464 493
464 494
464 5
464 523
464 556
464 563
464 611
464 727
464 82
464 820
464 822
464 847
464 900
464 93
465 473
465 519
465 53
465 549
465 61
465 615
465 667
465 707
465 786
465 809
465 83
466 487
466 488
466 494
466 496
466 498
466 499
466 5
466 500
466 504
466 506
466 510
466 525
466 529
466 53
466 555
466 6
466 602
466 608
466 64
466 649
466 7
466 720
466 754
466 8
466 804
466 856
466 86
466 893
466 9
466 912
466 971
467 509
467 549
467 62
467 69
467 81
467 84
467 85
467 86
467 971
468 495
468 730
468 74
468 82
469 474
469 477
469 478
469 5
469 66
469 89
469 90
469 91
469 96
47 48
47 482
47 483
47 5
47 547
47 76
47 79
47 820
47 847
47 86
47 925
47 96
47 971
47 976
47 981
470 494
470 590
470 655
470 75
470 753
470 816
470 86
470 914
470 96
470 971
470 980
470 986
471 472
471 473
471 607
471 671
471 810
471 84
472 610
473 474
473 483
473 489
473 490
473 493
473 495
473 498
473 508
473 509
473 531
473 533
473 536
473 537
473 545
473 549
473 550
473 551
473 581
473 582
473 6
473 627
473 63
473 642
473 667
473 68
473 69
473 747
473 767
473 80
473 81
473 855
473 87
473 93
473 963
474 476
474 477
474 478
474 493
474 494
474 513
474 514
474 546
474 560
474 612
474 615
474 62
474 66
474 663
474 68
474 80
474 81
474 82
474 83
474 84
474 859
474 87
474 89
474 90
474 91
474 932
474 950
474 96
476 478
477 478
477 66
477 69
477 90
477 91
478 486
478 514
478 543
478 62
478 652
478 66
478 81
478 83
478 84
478 90
478 91
48 482
48 485
48 486
48 492
48 50
48 527
48 547
48 560
48 643
48 654
48 66
48 678
48 75
48 76
48 84
48 847
48 925
48 96
48 976
48 981
480 494
480 508
480 509
480 549
480 550
480 564
480 601
480 62
480 638
480 66
480 667
480 671
480 678
480 69
480 74
480 80
480 86
480 92
480 971
481 5
481 54
481 55
481 552
481 56
481 57
481 58
481 586
481 59
481 599
481 6
481 63
481 685
481 698
481 738
481 809
481 83
481 845
481 898
481 949
481 950
481 96
482 483
482 497
482 521
482 531
482 535
482 553
482 554
482 576
482 593
482 598
482 64
482 655
482 679
482 74
482 777
482 78
482 79
482 820
482 89
482 93
483 493
483 533
483 556
483 61
483 65
483 727
483 764
483 820
483 851
483 917
483 94
484 494
484 515
484 563
484 572
484 64
484 694
484 822
484 83
484 86
484 87
484 936
485 73
485 74
485 76
485 84
485 86
485 976
485 981
486 493
486 5
486 51
486 53
486 537
486 6
486 611
486 63
486 65
486 664
486 714
486 725
486 81
486 82
486 820
486 94
487 488
487 496
487 498
487 529
487 558
487 805
487 84
487 9
487 922
488 496
488 498
488 499
488 529
488 922
488 971
489 5
489 528
489 6
489 64
489 644
489 771
489 82
489 87
489 929
489 932
49 50
49 612
49 643
49 71
49 83
49 84
49 87
490 491
490 513
490 518
490 546
490 607
490 63
490 80
490 81
490 82
490 87
490 932
491 497
491 548
491 624
491 695
491 753
491 816
491 892
492 5
492 510
492 518
492 612
492 615
492 64
492 678
492 83
492 84
492 932
492 950
493 515
493 522
493 523
493 526
493 533
493 543
493 546
493 562
493 563
493 568
493 572
493 585
493 600
493 611
493 615
493 62
493 65
493 694
493 791
493 817
493 82
493 820
493 835
493 84
493 87
493 909
493 93
493 932
494 504
494 506
494 509
494 510
494 515
494 529
494 539
494 543
494 544
494 563
494 576
494 58
494 588
494 590
494 593
494 601
494 62
494 662
494 68
494 690
494 70
494 714
494 747
494 75
494 81
494 82
494 822
494 83
494 84
494 86
494 90
494 918
494 93
494 932
494 94
495 5
495 526
495 60
495 606
495 62
495 638
495 641
495 671
495 673
495 739
495 74
495 748
495 82
495 83
495 87
495 932
496 498
496 5
496 506
496 529
496 560
496 602
496 64
496 83
496 922
497 531
497 548
497 562
497 581
497 77
497 78
497 79
497 811
498 499
498 500
498 501
498 503
498 506
498 51
498 525
498 526
498 529
498 533
498 538
498 562
498 569
498 573
498 58
498 593
498 602
498 608
498 61
498 62
498 64
498 65
498 7
498 700
498 707
498 710
498 720
498 73
498 738
498 74
498 765
498 777
498 8
498 804
498 856
498 86
498 9
498 92
498 922
498 956
498 967
499 500
499 501
499 502
499 503
499 504
499 505
499 506
499 510
499 525
499 529
499 533
499 566
499 602
499 608
499 61
499 649
499 699
499 7
499 700
499 707
499 765
499 8
499 86
499 9
499 912
499 913
499 922
5 511
5 516
5 517
5 520
5 527
5 528
5 53
5 55
5 557
5 57
5 572
5 58
5 581
5 59
5 6
5 611
5 619
5 63
5 64
5 644
5 669
5 681
5 690
5 697
5 7
5 716
5 718
5 726
5 728
5 730
5 738
5 74
5 76
5 763
5 789
5 807
5 809
5 815
5 82
5 820
5 828
5 833
5 840
5 859
5 868
5 89
5 900
5 902
5 931
5 96
5 97
5 980
5 99
5 990
50 612
50 643
50 654
50 71
50 82
50 84
50 87
500 501
500 502
500 504
500 506
500 525
500 569
500 699
500 7
500 9
501 504
501 569
502 503
502 504
502 505
502 506
502 529
502 661
502 7
502 8
502 9
503 506
503 61
504 506
504 510
504 525
504 529
504 533
504 569
504 674
504 699
504 7
504 765
504 8
504 856
504 86
504 912
504 967
504 971
505 525
505 62
505 661
505 971
506 510
506 529
506 62
506 64
506 651
506 661
506 672
506 674
506 699
506 7
506 765
506 827
506 83
506 856
506 86
506 87
506 9
506 913
506 932
506 956
506 971
507 513
507 85
508 509
508 533
508 546
508 549
508 550
508 582
508 62
508 663
508 667
508 679
508 68
508 69
508 710
508 747
508 80
508 81
508 82
508 86
509 513
509 518
509 540
509 546
509 549
509 551
509 62
509 667
509 671
509 678
509 68
509 69
509 710
509 713
509 747
509 81
509 82
509 87
509 952
509 958
509 969
509 972
51 557
51 581
51 593
51 64
51 65
51 740
51 751
51 79
51 82
51 820
51 85
51 908
51 917
51 918
51 93
51 95
51 970
510 525
510 661
510 674
510 7
510 754
510 8
510 84
510 86
510 9
511 541
511 64
511 651
511 682
511 7
511 810
511 949
513 518
513 546
513 615
513 627
513 642
513 652
513 655
513 66
513 74
513 747
513 83
513 84
513 87
513 906
513 92
513 93
514 66
514 91
514 971
515 526
515 533
515 552
515 562
515 572
515 593
515 6
515 64
515 65
515 664
515 813
515 817
515 89
515 93
515 94
516 517
516 6
516 743
516 762
517 6
517 743
518 519
518 533
518 546
518 552
518 557
518 559
518 560
518 577
518 58
518 615
518 62
518 621
518 63
518 661
518 771
518 81
518 82
518 83
518 86
518 87
518 954
519 607
519 61
519 786
519 809
519 85
52 53
52 537
52 595
52 61
52 719
52 781
52 786
52 814
52 820
520 532
520 533
520 54
520 55
520 552
520 56
520 57
520 571
520 58
520 59
520 6
520 63
520 635
520 685
520 738
520 810
520 812
520 815
520 832
520 845
520 859
520 89
520 92
520 971
520 991
521 553
521 554
521 583
521 598
521 615
521 62
521 766
521 823
521 86
522 523
522 563
523 543
523 601
523 618
523 64
523 706
523 829
523 836
524 72
525 529
525 533
525 573
525 602
525 65
525 699
525 7
525 700
525 707
525 720
525 729
525 765
525 8
525 856
525 86
525 9
525 913
525 951
525 967
526 53
526 537
526 542
526 543
526 546
526 568
526 576
526 65
526 655
526 714
526 782
526 813
526 82
526 840
526 86
526 912
526 93
527 547
527 6
527 64
527 96
527 976
527 981
528 6
528 64
528 644
529 533
529 558
529 602
529 608
529 699
529 7
529 720
529 9
529 913
529 922
53 537
53 61
53 65
53 82
53 820
53 822
53 85
53 922
530 533
530 538
530 92
531 539
531 548
531 556
531 581
531 62
531 686
531 77
531 78
531 79
531 811
531 82
531 86
531 914
531 932
532 54
532 552
532 56
532 57
532 63
533 541
533 546
533 55
533 551
533 562
533 572
533 576
533 58
533 581
533 582
533 590
533 602
533 607
533 61
533 616
533 63
533 65
533 663
533 667
533 67
533 679
533 756
533 800
533 81
533 818
533 82
533 820
533 822
533 83
533 84
533 856
533 86
533 87
533 877
533 88
533 906
533 94
533 950
533 97
534 544
534 813
535 554
535 728
535 777
536 546
536 601
536 83
536 86
537 607
537 61
537 613
537 7
537 74
537 781
537 85
538 723
538 733
538 777
538 92
539 77
539 78
539 79
54 55
54 552
54 56
54 57
54 58
54 59
54 6
54 63
54 665
54 685
54 698
54 738
54 803
54 807
54 809
54 812
54 826
54 88
54 89
54 949
54 96
540 549
540 82
540 86
540 952
540 971
541 62
541 641
541 764
541 82
542 543
542 544
543 576
543 65
543 672
543 688
543 689
543 813
543 817
543 82
543 87
543 93
544 568
544 585
544 6
544 607
544 62
544 790
544 81
544 813
544 817
544 82
544 820
544 84
544 932
545 588
545 590
545 785
545 87
545 93
546 58
546 597
546 604
546 615
546 62
546 651
546 7
546 723
546 742
546 760
546 77
546 80
546 803
546 812
546 82
546 820
546 828
546 83
546 84
546 850
546 856
546 859
546 86
546 87
546 906
546 909
546 936
546 954
546 963
546 970
547 847
547 87
547 976
547 981
548 607
548 62
548 753
548 78
548 816
548 82
549 550
549 551
549 582
549 6
549 627
549 64
549 661
549 663
549 667
549 67
549 671
549 678
549 679
549 68
549 69
549 690
549 694
549 710
549 74
549 747
549 778
549 779
549 799
549 80
549 800
549 81
549 818
549 82
549 84
549 855
549 877
549 934
55 552
55 56
55 57
55 58
55 59
55 6
55 63
55 638
55 665
55 685
55 698
55 718
55 738
55 809
55 86
55 949
55 950
550 667
550 68
550 69
550 747
550 81
550 82
551 663
551 671
551 679
551 69
551 723
551 733
551 86
552 57
552 571
552 58
552 6
552 63
552 698
552 738
552 809
552 82
552 87
552 89
552 949
553 554
553 598
553 84
553 86
554 62
554 777
554 971
555 7
555 720
555 754
555 82
555 84
555 856
557 581
557 77
557 79
557 83
557 917
558 569
558 674
558 823
558 84
558 856
558 9
559 769
56 57
56 58
56 59
56 6
56 610
56 619
56 63
56 685
56 698
56 718
56 738
56 809
56 826
56 845
56 859
56 865
56 880
56 89
56 921
56 949
56 96
560 607
560 66
560 73
560 74
560 75
560 775
560 810
560 84
560 856
560 913
560 922
562 568
562 6
562 65
562 654
562 714
562 840
563 572
563 584
563 6
563 706
563 82
563 822
563 86
563 93
563 936
564 589
564 63
564 638
564 640
564 686
564 748
564 81
564 876
565 608
565 674
565 754
565 804
565 823
565 9
566 569
566 570
566 573
566 608
566 666
566 7
566 700
566 707
566 8
566 823
566 971
567 82
567 843
568 65
568 81
568 82
569 570
569 602
569 661
569 674
569 7
569 707
569 739
569 754
569 778
569 8
569 81
569 9
569 957
569 971
57 58
57 59
57 6
57 601
57 604
57 610
57 619
57 63
57 64
57 683
57 685
57 698
57 738
57 809
57 812
57 815
57 832
57 84
57 849
57 859
57 863
57 88
57 880
57 89
57 924
57 949
57 96
570 661
570 7
570 700
570 707
570 8
570 823
570 971
571 6
571 62
571 63
572 593
572 64
572 776
572 82
572 822
572 86
572 936
572 939
573 7
573 8
573 856
573 86
573 9
574 65
575 851
576 82
576 93
576 932
577 578
577 757
579 592
579 83
579 929
58 586
58 587
58 59
58 597
58 6
58 601
58 612
58 615
58 62
58 63
58 654
58 664
58 665
58 685
58 698
58 738
58 803
58 809
58 81
58 812
58 814
58 82
58 826
58 83
58 832
58 84
58 845
58 856
58 859
58 86
58 865
58 87
58 88
58 880
58 886
58 89
58 921
58 950
58 96
58 963
581 65
581 77
581 78
581 79
581 820
581 872
582 62
582 667
582 671
582 84
582 971
584 86
585 600
585 706
585 813
585 84
586 59
586 62
586 63
586 738
586 826
586 83
586 832
586 86
586 932
587 6
587 832
588 600
589 607
589 638
589 671
589 83
59 6
59 610
59 619
59 63
59 685
59 698
59 738
59 803
59 809
59 812
59 826
59 832
59 845
59 859
59 865
59 880
59 886
59 89
59 949
59 96
59 971
59 990
590 86
590 953
591 62
591 83
591 96
592 617
592 735
592 760
592 908
592 929
592 933
593 776
593 820
593 822
593 86
593 907
593 908
593 917
593 918
593 936
593 94
593 95
593 955
593 974
594 82
594 83
594 84
596 597
597 62
597 651
597 695
597 756
597 810
597 932
598 84
598 86
599 63
599 708
599 931
599 96
6 611
6 63
6 64
6 644
6 665
6 667
6 685
6 738
6 751
6 79
6 826
6 845
6 859
6 880
6 89
6 921
6 949
6 95
6 96
6 994
60 61
60 947
60 95
600 65
600 813
601 64
601 79
601 812
601 82
601 83
601 84
601 859
601 86
601 886
602 61
602 616
602 699
602 700
602 707
604 96
605 797
605 846
605 851
607 695
607 81
607 87
608 61
608 7
608 720
608 754
608 804
608 971
61 64
61 707
61 758
61 872
61 95
610 694
610 89
610 96
611 623
611 64
611 66
611 86
611 938
612 71
612 726
612 747
612 791
612 82
612 828
612 83
612 832
612 84
612 856
612 859
612 924
612 963
613 614
613 619
613 747
613 756
613 793
614 742
614 756
615 64
615 669
615 714
615 747
615 800
615 820
615 828
615 83
615 84
615 856
615 87
615 954
615 963
617 618
618 662
618 820
618 97
618 98
619 89
619 96
62 627
62 63
62 64
62 662
62 666
62 68
62 7
62 70
62 708
62 714
62 726
62 730
62 736
62 74
62 747
62 748
62 749
62 754
62 769
62 77
62 78
62 79
62 8
62 80
62 81
62 811
62 812
62 818
62 82
62 820
62 83
62 833
62 84
62 856
62 859
62 86
62 87
62 89
62 90
62 93
62 98
62 99
620 86
621 781
623 791
623 813
623 84
623 86
624 651
624 84
625 63
626 87
627 667
627 678
627 707
627 809
627 86
627 971
63 635
63 665
63 685
63 718
63 738
63 803
63 809
63 81
63 812
63 815
63 82
63 820
63 826
63 83
63 832
63 845
63 849
63 854
63 859
63 865
63 87
63 88
63 880
63 89
63 896
63 921
63 932
63 971
632 719
634 635
635 812
638 639
638 640
638 81
638 896
639 65
64 640
64 644
64 65
64 66
64 665
64 68
64 685
64 69
64 719
64 730
64 733
64 74
64 771
64 786
64 80
64 815
64 820
64 828
64 840
64 859
64 87
64 89
64 90
64 91
64 914
64 918
64 926
64 93
64 937
64 94
64 95
64 950
64 96
64 98
64 980
64 99
640 937
640 97
640 98
640 99
641 669
641 748
641 82
641 946
642 82
642 83
642 87
642 932
643 87
643 963
644 820
644 950
645 697
647 685
647 82
647 93
649 729
649 84
65 664
65 714
65 752
65 776
65 791
65 818
65 835
65 840
65 86
65 870
65 874
65 910
65 92
65 94
65 990
65 998
651 950
654 66
654 783
654 789
654 820
654 83
654 84
654 87
655 75
655 96
655 980
66 661
66 67
66 90
66 91
66 96
66 984
661 666
661 674
661 7
661 700
661 707
661 754
661 8
661 823
661 856
661 87
661 9
662 84
662 86
662 97
663 679
663 68
663 69
663 747
663 80
663 81
664 694
664 84
664 93
665 685
665 812
665 859
665 87
665 886
666 7
666 823
666 856
666 86
666 951
667 68
667 69
667 747
667 81
669 783
669 930
67 74
67 86
671 68
671 69
671 690
671 747
671 80
671 81
671 932
672 7
672 8
672 971
674 7
674 707
674 754
674 823
674 9
678 68
678 69
678 747
678 92
679 68
679 69
679 80
679 81
679 971
68 69
68 80
68 82
68 86
68 92
68 932
681 682
681 82
681 851
681 86
685 698
685 738
685 809
685 81
685 812
685 815
685 826
685 845
685 859
685 880
685 92
685 949
685 990
686 86
687 86
69 710
69 713
69 715
69 747
69 777
69 80
69 81
69 86
69 87
69 952
69 958
690 74
690 86
693 82
693 83
694 706
695 734
695 85
695 971
696 74
698 738
698 809
698 949
699 700
699 720
699 845
699 9
699 913
699 922
699 924
699 953
699 971
7 700
7 707
7 720
7 754
7 765
7 8
7 823
7 833
7 856
7 86
7 913
7 922
7 956
70 71
70 83
70 84
70 86
70 932
700 707
700 720
700 823
700 913
700 956
700 957
700 971
702 932
706 836
706 86
706 936
707 720
707 73
707 765
707 809
707 823
707 856
707 86
707 872
707 9
707 913
707 950
707 957
708 748
708 768
708 82
708 86
708 97
708 98
708 99
71 83
71 84
710 747
710 81
710 896
710 952
710 971
712 995
713 81
714 813
714 86
714 93
715 799
715 84
717 788
719 841
72 92
720 754
720 765
720 804
720 856
720 86
720 9
723 733
723 777
723 825
723 92
723 923
723 971
725 96
726 85
727 83
727 84
728 733
728 885
728 92
728 96
729 84
729 971
73 74
73 756
73 84
73 950
730 82
733 777
733 825
733 923
736 86
738 809
739 82
74 745
74 756
74 764
74 82
74 85
74 86
74 87
74 872
74 905
74 950
740 82
740 971
745 979
747 80
747 82
747 83
747 86
747 971
748 793
748 82
748 932
748 944
749 776
749 820
75 753
75 76
75 84
75 96
750 88
751 820
752 82
752 84
753 816
753 86
753 860
753 900
753 914
753 978
754 804
754 84
754 9
754 950
754 971
756 86
757 980
758 85
758 91
76 89
76 96
76 976
76 981
765 856
765 86
765 9
765 912
767 803
767 82
768 935
768 97
768 98
768 99
77 78
77 79
77 811
77 82
77 84
77 87
77 932
77 950
776 820
776 908
776 917
776 918
776 936
776 94
776 95
777 86
777 862
777 971
778 85
778 971
779 820
78 79
78 82
78 93
780 84
782 82
783 82
789 835
789 93
79 811
79 820
79 86
79 922
796 828
799 971
8 823
8 856
8 86
8 9
8 950
8 971
80 81
80 815
80 82
80 866
80 880
80 92
80 950
80 96
801 820
803 812
803 826
803 859
803 990
804 971
805 971
806 809
806 88
806 89
809 826
809 845
809 859
809 88
809 89
809 949
809 971
81 82
81 83
81 86
81 87
81 877
81 896
81 911
81 932
81 952
810 87
810 88
811 84
812 826
812 83
812 845
812 859
812 87
812 877
812 880
812 886
812 932
812 950
812 971
812 990
812 991
813 817
813 836
813 93
815 859
815 880
815 92
816 860
816 914
816 953
816 96
816 987
818 86
818 92
82 820
82 83
82 84
82 853
82 854
82 856
82 859
82 86
82 87
82 93
82 932
82 96
82 963
82 99
820 83
820 85
820 856
820 86
820 87
820 908
820 917
820 918
820 93
820 932
820 94
820 95
820 950
820 955
820 970
820 974
822 86
822 900
822 908
822 922
822 936
822 953
823 856
823 9
823 971
825 923
826 832
826 859
826 990
828 87
828 889
828 892
828 896
83 84
83 856
83 86
83 87
83 932
83 96
83 963
832 859
833 856
835 84
84 86
84 87
840 86
841 869
842 96
844 971
845 859
845 865
845 89
845 921
845 924
845 953
847 919
847 922
847 925
847 96
847 976
847 981
849 859
85 86
85 872
851 852
851 907
855 86
856 87
856 913
856 922
856 932
856 950
856 956
859 87
859 880
859 886
859 89
859 921
859 932
859 963
859 971
859 990
859 991
86 87
86 90
86 92
86 93
86 932
86 936
86 94
86 95
86 96
86 963
86 98
860 900
860 914
860 978
866 96
867 96
87 909
87 954
87 963
87 974
88 89
88 924
88 96
880 921
880 949
881 96
883 93
885 887
887 92
89 91
89 919
89 924
89 925
89 933
89 96
891 892
892 896
893 971
9 957
9 971
90 91
900 914
900 953
900 978
900 987
903 907
907 936
908 917
908 918
908 922
908 94
908 95
91 96
91 989
913 922
913 950
913 951
913 956
913 967
913 972
914 987
917 918
917 94
917 95
917 970
917 974
918 94
918 95
918 974
919 976
919 981
92 96
921 930
922 956
924 96
925 976
925 981
926 927
926 930
926 931
926 963
927 930
927 931
927 963
929 933
93 940
93 95
93 971
930 931
930 963
931 963
932 963
932 98
933 956
935 936
936 955
936 965
937 99
94 95
94 955
94 974
942 95
950 963
951 957
953 997
958 962
97 98
97 99
971 973
971 975
976 981
98 99
